*SPEF "ieee 1481-1999"
*DESIGN "sar_logic_diff"
*DATE "12:50:06 Friday August 07, 2026"
*VENDOR "The OpenROAD Project"
*PROGRAM "OpenROAD"
*VERSION "26Q1-1024-gdcf36133a"
*DESIGN_FLOW "NAME_SCOPE LOCAL" "PIN_CAP NONE"
*DIVIDER /
*DELIMITER :
*BUS_DELIMITER []
*T_UNIT 1 NS
*C_UNIT 1 PF
*R_UNIT 1 OHM
*L_UNIT 1 HENRY

*NAME_MAP
*3 busy
*4 clk
*5 cmp_clk
*6 cmp_rst
*7 comp_out
*8 dac_n[0]
*9 dac_n[1]
*10 dac_n[2]
*11 dac_n[3]
*12 dac_n[4]
*13 dac_n[5]
*14 dac_n[6]
*15 dac_n[7]
*16 dac_n[8]
*17 dac_n[9]
*18 dac_p[0]
*19 dac_p[1]
*20 dac_p[2]
*21 dac_p[3]
*22 dac_p[4]
*23 dac_p[5]
*24 dac_p[6]
*25 dac_p[7]
*26 dac_p[8]
*27 dac_p[9]
*28 dout[0]
*29 dout[1]
*30 dout[2]
*31 dout[3]
*32 dout[4]
*33 dout[5]
*34 dout[6]
*35 dout[7]
*36 dout[8]
*37 dout[9]
*38 dout_valid
*39 eoc
*40 rst_n
*41 samp_bot
*42 samp_top
*43 start
*44 _000_
*45 _001_
*46 _002_
*47 _003_
*48 _004_
*49 _005_
*50 _006_
*51 _007_
*52 _008_
*53 _009_
*54 _010_
*55 _011_
*56 _012_
*57 _013_
*58 _014_
*59 _015_
*60 _016_
*61 _017_
*62 _018_
*63 _019_
*64 _020_
*65 _021_
*66 _022_
*67 _023_
*68 _024_
*69 _025_
*70 _026_
*71 _027_
*72 _028_
*73 _029_
*74 _030_
*75 _031_
*76 _032_
*77 _033_
*78 _034_
*79 _035_
*80 _036_
*81 _037_
*82 _038_
*83 _039_
*84 _040_
*85 _041_
*86 _042_
*87 _043_
*88 _044_
*89 _045_
*90 _046_
*91 _047_
*92 _048_
*93 _049_
*94 _050_
*95 _051_
*96 _052_
*97 _053_
*98 _054_
*99 _055_
*100 _056_
*101 _057_
*102 _058_
*103 _059_
*104 _060_
*105 _061_
*106 _062_
*107 _063_
*108 _064_
*109 _065_
*110 _066_
*111 _067_
*112 _068_
*113 _069_
*114 _070_
*115 _071_
*116 _072_
*117 _073_
*118 _074_
*119 _075_
*120 _076_
*121 _077_
*122 _078_
*123 _079_
*124 _080_
*125 _081_
*126 _082_
*127 _083_
*128 _084_
*129 _085_
*130 _086_
*131 _087_
*132 _088_
*133 _089_
*134 _090_
*135 _091_
*136 _092_
*137 _093_
*138 _094_
*139 _095_
*140 _096_
*141 _097_
*142 _098_
*143 _099_
*144 _100_
*145 _101_
*146 _102_
*147 _103_
*148 _104_
*149 _105_
*150 _106_
*151 _107_
*152 _108_
*153 _109_
*154 _110_
*155 _111_
*156 _112_
*157 _113_
*158 _114_
*159 _115_
*160 _116_
*161 _117_
*162 _118_
*163 _119_
*164 _120_
*165 _121_
*166 _122_
*167 _123_
*168 _124_
*169 _125_
*170 _126_
*171 _127_
*172 _128_
*173 _129_
*174 _130_
*175 _131_
*176 _132_
*177 _133_
*178 _134_
*179 _135_
*180 _136_
*181 _137_
*182 _138_
*183 _139_
*184 _140_
*185 _141_
*186 _142_
*187 _143_
*188 _144_
*189 _145_
*190 _146_
*191 _147_
*192 _148_
*193 _149_
*194 _150_
*195 _151_
*196 _152_
*197 _153_
*198 _154_
*199 _155_
*200 _156_
*201 _157_
*202 _158_
*203 _159_
*204 bit_idx\[0\]
*205 bit_idx\[1\]
*206 bit_idx\[2\]
*207 bit_idx\[3\]
*208 clknet_0_clk
*209 clknet_4_0_0_clk
*210 clknet_4_10_0_clk
*211 clknet_4_11_0_clk
*212 clknet_4_12_0_clk
*213 clknet_4_13_0_clk
*214 clknet_4_14_0_clk
*215 clknet_4_15_0_clk
*216 clknet_4_1_0_clk
*217 clknet_4_2_0_clk
*218 clknet_4_3_0_clk
*219 clknet_4_4_0_clk
*220 clknet_4_5_0_clk
*221 clknet_4_6_0_clk
*222 clknet_4_7_0_clk
*223 clknet_4_8_0_clk
*224 clknet_4_9_0_clk
*225 cnt\[0\]
*226 cnt\[1\]
*227 cnt\[2\]
*228 cnt\[3\]
*229 net1
*230 net10
*231 net100
*232 net101
*233 net11
*234 net12
*235 net13
*236 net14
*237 net15
*238 net16
*239 net17
*240 net18
*241 net19
*242 net2
*243 net20
*244 net21
*245 net22
*246 net23
*247 net24
*248 net25
*249 net26
*250 net27
*251 net28
*252 net29
*253 net3
*254 net30
*255 net31
*256 net32
*257 net33
*258 net34
*259 net35
*260 net36
*261 net37
*262 net38
*263 net39
*264 net4
*265 net40
*266 net41
*267 net42
*268 net43
*269 net44
*270 net45
*271 net46
*272 net47
*273 net48
*274 net49
*275 net5
*276 net50
*277 net51
*278 net52
*279 net53
*280 net54
*281 net55
*282 net56
*283 net57
*284 net58
*285 net59
*286 net6
*287 net60
*288 net61
*289 net62
*290 net63
*291 net64
*292 net65
*293 net66
*294 net67
*295 net68
*296 net69
*297 net7
*298 net70
*299 net71
*300 net72
*301 net73
*302 net74
*303 net75
*304 net76
*305 net77
*306 net78
*307 net79
*308 net8
*309 net80
*310 net81
*311 net82
*312 net83
*313 net84
*314 net85
*315 net86
*316 net87
*317 net88
*318 net89
*319 net9
*320 net90
*321 net91
*322 net92
*323 net93
*324 net94
*325 net95
*326 net96
*327 net97
*328 net98
*329 net99
*330 sar_reg\[0\]
*331 sar_reg\[1\]
*332 sar_reg\[2\]
*333 sar_reg\[3\]
*334 sar_reg\[4\]
*335 sar_reg\[5\]
*336 sar_reg\[6\]
*337 sar_reg\[7\]
*338 sar_reg\[8\]
*339 sar_reg\[9\]
*340 state\[0\]
*341 state\[1\]
*342 state\[2\]
*343 state\[3\]
*344 state\[4\]
*345 state\[5\]
*346 state\[6\]
*347 state\[7\]
*348 ANTENNA__162__I
*349 ANTENNA__171__I
*350 ANTENNA__174__I
*351 ANTENNA__176__I
*352 ANTENNA__177__I
*353 ANTENNA__177__ZN
*354 ANTENNA__182__I
*355 ANTENNA__185__A1
*356 ANTENNA__186__A3
*357 ANTENNA__198__A1
*358 ANTENNA__200__A1
*359 ANTENNA__201__ZN
*360 ANTENNA__203__A1
*361 ANTENNA__205__A1
*362 ANTENNA__208__A2
*363 ANTENNA__209__A2
*364 ANTENNA__218__A2
*365 ANTENNA__223__A2
*366 ANTENNA__228__A2
*367 ANTENNA__233__A2
*368 ANTENNA__235__A1
*369 ANTENNA__237__A2
*370 ANTENNA__239__A3
*371 ANTENNA__241__A2
*372 ANTENNA__245__A2
*373 ANTENNA__248__A2
*374 ANTENNA__251__A1
*375 ANTENNA__253__A2
*376 ANTENNA__260__A1
*377 ANTENNA__260__A2
*378 ANTENNA__260__ZN
*379 ANTENNA__262__B
*380 ANTENNA__263__A2
*381 ANTENNA__263__ZN
*382 ANTENNA__265__B
*383 ANTENNA__266__A1
*384 ANTENNA__266__A2
*385 ANTENNA__266__ZN
*386 ANTENNA__268__B
*387 ANTENNA__269__A1
*388 ANTENNA__269__A2
*389 ANTENNA__269__ZN
*390 ANTENNA__271__B
*391 ANTENNA__272__A2
*392 ANTENNA__275__A2
*393 ANTENNA__284__A1
*394 ANTENNA__285__A1
*395 ANTENNA__292__A1
*396 ANTENNA__309__A1
*397 ANTENNA__309__ZN
*398 ANTENNA__310__A2
*399 ANTENNA__314__A1
*400 ANTENNA__319__A2
*401 ANTENNA__340__RN
*402 ANTENNA__359__Q
*403 ANTENNA__359__RN
*404 ANTENNA__360__RN
*405 ANTENNA__361__Q
*406 ANTENNA__361__RN
*407 ANTENNA__362__Q
*408 ANTENNA__367__Q
*409 ANTENNA__370__RN
*410 ANTENNA__381__D
*411 ANTENNA_clkbuf_0_clk_I
*412 ANTENNA_clkbuf_0_clk_Z
*413 ANTENNA_clkbuf_4_0_0_clk_I
*414 ANTENNA_clkbuf_4_10_0_clk_I
*415 ANTENNA_clkbuf_4_11_0_clk_I
*416 ANTENNA_clkbuf_4_12_0_clk_I
*417 ANTENNA_clkbuf_4_13_0_clk_I
*418 ANTENNA_clkbuf_4_14_0_clk_I
*419 ANTENNA_clkbuf_4_15_0_clk_I
*420 ANTENNA_clkbuf_4_1_0_clk_I
*421 ANTENNA_clkbuf_4_2_0_clk_I
*422 ANTENNA_clkbuf_4_3_0_clk_I
*423 ANTENNA_clkbuf_4_4_0_clk_I
*424 ANTENNA_clkbuf_4_5_0_clk_I
*425 ANTENNA_clkbuf_4_6_0_clk_I
*426 ANTENNA_clkbuf_4_7_0_clk_I
*427 ANTENNA_clkbuf_4_8_0_clk_I
*428 ANTENNA_clkbuf_4_9_0_clk_I
*429 ANTENNA_fanout47_Z
*430 ANTENNA_fanout49_I
*431 ANTENNA_fanout49_Z
*432 ANTENNA_fanout50_Z
*433 ANTENNA_fanout57_I
*434 ANTENNA_fanout58_I
*435 ANTENNA_fanout59_Z
*436 ANTENNA_fanout62_Z
*437 ANTENNA_fanout63_Z
*438 ANTENNA_fanout97_I
*439 ANTENNA_fanout98_I
*440 ANTENNA_input1_I
*441 ANTENNA_input1_Z
*442 ANTENNA_input2_I
*443 ANTENNA_input3_I
*444 ANTENNA_load_slew69_I
*445 ANTENNA_load_slew69_Z
*446 ANTENNA_load_slew70_Z
*447 ANTENNA_output10_I
*448 ANTENNA_output17_I
*449 ANTENNA_output19_I
*450 ANTENNA_output20_I
*451 ANTENNA_output25_I
*452 FILLER_0_101
*453 FILLER_0_104
*454 FILLER_0_106
*455 FILLER_0_115
*456 FILLER_0_125
*457 FILLER_0_135
*458 FILLER_0_138
*459 FILLER_0_144
*460 FILLER_0_154
*461 FILLER_0_164
*462 FILLER_0_168
*463 FILLER_0_172
*464 FILLER_0_179
*465 FILLER_0_18
*466 FILLER_0_187
*467 FILLER_0_197
*468 FILLER_0_20
*469 FILLER_0_201
*470 FILLER_0_203
*471 FILLER_0_206
*472 FILLER_0_208
*473 FILLER_0_23
*474 FILLER_0_33
*475 FILLER_0_36
*476 FILLER_0_45
*477 FILLER_0_57
*478 FILLER_0_67
*479 FILLER_0_70
*480 FILLER_0_74
*481 FILLER_0_91
*482 FILLER_10_104
*483 FILLER_10_107
*484 FILLER_10_145
*485 FILLER_10_147
*486 FILLER_10_174
*487 FILLER_10_177
*488 FILLER_10_180
*489 FILLER_10_182
*490 FILLER_10_34
*491 FILLER_10_37
*492 FILLER_10_47
*493 FILLER_10_59
*494 FILLER_10_6
*495 FILLER_11_100
*496 FILLER_11_139
*497 FILLER_11_142
*498 FILLER_11_145
*499 FILLER_11_147
*500 FILLER_11_156
*501 FILLER_11_194
*502 FILLER_11_198
*503 FILLER_11_2
*504 FILLER_11_200
*505 FILLER_11_209
*506 FILLER_11_212
*507 FILLER_11_215
*508 FILLER_11_41
*509 FILLER_11_5
*510 FILLER_11_53
*511 FILLER_11_69
*512 FILLER_11_72
*513 FILLER_11_81
*514 FILLER_11_87
*515 FILLER_11_91
*516 FILLER_12_102
*517 FILLER_12_104
*518 FILLER_12_107
*519 FILLER_12_145
*520 FILLER_12_16
*521 FILLER_12_164
*522 FILLER_12_174
*523 FILLER_12_177
*524 FILLER_12_180
*525 FILLER_12_182
*526 FILLER_12_34
*527 FILLER_12_37
*528 FILLER_12_6
*529 FILLER_12_64
*530 FILLER_13_124
*531 FILLER_13_126
*532 FILLER_13_129
*533 FILLER_13_139
*534 FILLER_13_142
*535 FILLER_13_145
*536 FILLER_13_149
*537 FILLER_13_159
*538 FILLER_13_195
*539 FILLER_13_199
*540 FILLER_13_2
*541 FILLER_13_209
*542 FILLER_13_212
*543 FILLER_13_215
*544 FILLER_13_37
*545 FILLER_13_55
*546 FILLER_13_69
*547 FILLER_13_72
*548 FILLER_13_83
*549 FILLER_13_87
*550 FILLER_14_10
*551 FILLER_14_104
*552 FILLER_14_107
*553 FILLER_14_118
*554 FILLER_14_12
*555 FILLER_14_122
*556 FILLER_14_146
*557 FILLER_14_156
*558 FILLER_14_174
*559 FILLER_14_177
*560 FILLER_14_180
*561 FILLER_14_182
*562 FILLER_14_19
*563 FILLER_14_191
*564 FILLER_14_209
*565 FILLER_14_29
*566 FILLER_14_31
*567 FILLER_14_34
*568 FILLER_14_37
*569 FILLER_14_39
*570 FILLER_14_48
*571 FILLER_14_58
*572 FILLER_14_68
*573 FILLER_14_86
*574 FILLER_15_139
*575 FILLER_15_142
*576 FILLER_15_158
*577 FILLER_15_194
*578 FILLER_15_198
*579 FILLER_15_2
*580 FILLER_15_200
*581 FILLER_15_209
*582 FILLER_15_212
*583 FILLER_15_215
*584 FILLER_15_37
*585 FILLER_15_39
*586 FILLER_15_42
*587 FILLER_15_50
*588 FILLER_15_62
*589 FILLER_15_69
*590 FILLER_15_72
*591 FILLER_15_86
*592 FILLER_15_88
*593 FILLER_16_10
*594 FILLER_16_104
*595 FILLER_16_107
*596 FILLER_16_116
*597 FILLER_16_120
*598 FILLER_16_124
*599 FILLER_16_128
*600 FILLER_16_145
*601 FILLER_16_155
*602 FILLER_16_157
*603 FILLER_16_17
*604 FILLER_16_173
*605 FILLER_16_177
*606 FILLER_16_180
*607 FILLER_16_182
*608 FILLER_16_28
*609 FILLER_16_34
*610 FILLER_16_37
*611 FILLER_16_40
*612 FILLER_16_50
*613 FILLER_16_68
*614 FILLER_16_86
*615 FILLER_16_90
*616 FILLER_16_94
*617 FILLER_17_113
*618 FILLER_17_120
*619 FILLER_17_139
*620 FILLER_17_142
*621 FILLER_17_151
*622 FILLER_17_155
*623 FILLER_17_172
*624 FILLER_17_2
*625 FILLER_17_200
*626 FILLER_17_207
*627 FILLER_17_209
*628 FILLER_17_212
*629 FILLER_17_215
*630 FILLER_17_37
*631 FILLER_17_55
*632 FILLER_17_57
*633 FILLER_17_66
*634 FILLER_17_72
*635 FILLER_17_76
*636 FILLER_18_10
*637 FILLER_18_104
*638 FILLER_18_107
*639 FILLER_18_116
*640 FILLER_18_118
*641 FILLER_18_136
*642 FILLER_18_138
*643 FILLER_18_14
*644 FILLER_18_141
*645 FILLER_18_159
*646 FILLER_18_169
*647 FILLER_18_171
*648 FILLER_18_174
*649 FILLER_18_177
*650 FILLER_18_180
*651 FILLER_18_182
*652 FILLER_18_24
*653 FILLER_18_34
*654 FILLER_18_37
*655 FILLER_18_45
*656 FILLER_18_55
*657 FILLER_18_59
*658 FILLER_18_63
*659 FILLER_18_91
*660 FILLER_18_93
*661 FILLER_18_96
*662 FILLER_19_10
*663 FILLER_19_121
*664 FILLER_19_129
*665 FILLER_19_139
*666 FILLER_19_14
*667 FILLER_19_142
*668 FILLER_19_145
*669 FILLER_19_183
*670 FILLER_19_191
*671 FILLER_19_209
*672 FILLER_19_212
*673 FILLER_19_215
*674 FILLER_19_24
*675 FILLER_19_30
*676 FILLER_19_66
*677 FILLER_19_72
*678 FILLER_19_75
*679 FILLER_19_77
*680 FILLER_1_111
*681 FILLER_1_130
*682 FILLER_1_139
*683 FILLER_1_142
*684 FILLER_1_151
*685 FILLER_1_16
*686 FILLER_1_189
*687 FILLER_1_193
*688 FILLER_1_199
*689 FILLER_1_209
*690 FILLER_1_212
*691 FILLER_1_215
*692 FILLER_1_26
*693 FILLER_1_32
*694 FILLER_1_6
*695 FILLER_1_68
*696 FILLER_1_72
*697 FILLER_1_75
*698 FILLER_20_10
*699 FILLER_20_104
*700 FILLER_20_107
*701 FILLER_20_127
*702 FILLER_20_129
*703 FILLER_20_138
*704 FILLER_20_16
*705 FILLER_20_174
*706 FILLER_20_177
*707 FILLER_20_180
*708 FILLER_20_182
*709 FILLER_20_24
*710 FILLER_20_34
*711 FILLER_20_37
*712 FILLER_20_42
*713 FILLER_20_52
*714 FILLER_20_62
*715 FILLER_20_98
*716 FILLER_21_10
*717 FILLER_21_126
*718 FILLER_21_132
*719 FILLER_21_139
*720 FILLER_21_142
*721 FILLER_21_152
*722 FILLER_21_18
*723 FILLER_21_188
*724 FILLER_21_192
*725 FILLER_21_196
*726 FILLER_21_200
*727 FILLER_21_209
*728 FILLER_21_212
*729 FILLER_21_215
*730 FILLER_21_27
*731 FILLER_21_63
*732 FILLER_21_69
*733 FILLER_21_72
*734 FILLER_21_87
*735 FILLER_21_91
*736 FILLER_22_104
*737 FILLER_22_107
*738 FILLER_22_116
*739 FILLER_22_124
*740 FILLER_22_134
*741 FILLER_22_141
*742 FILLER_22_145
*743 FILLER_22_157
*744 FILLER_22_174
*745 FILLER_22_177
*746 FILLER_22_180
*747 FILLER_22_182
*748 FILLER_22_34
*749 FILLER_22_37
*750 FILLER_22_64
*751 FILLER_22_7
*752 FILLER_22_82
*753 FILLER_22_92
*754 FILLER_23_10
*755 FILLER_23_104
*756 FILLER_23_111
*757 FILLER_23_139
*758 FILLER_23_142
*759 FILLER_23_144
*760 FILLER_23_150
*761 FILLER_23_154
*762 FILLER_23_156
*763 FILLER_23_172
*764 FILLER_23_200
*765 FILLER_23_204
*766 FILLER_23_208
*767 FILLER_23_212
*768 FILLER_23_215
*769 FILLER_23_46
*770 FILLER_23_54
*771 FILLER_23_64
*772 FILLER_23_66
*773 FILLER_23_69
*774 FILLER_23_72
*775 FILLER_23_85
*776 FILLER_24_10
*777 FILLER_24_104
*778 FILLER_24_107
*779 FILLER_24_117
*780 FILLER_24_127
*781 FILLER_24_14
*782 FILLER_24_163
*783 FILLER_24_165
*784 FILLER_24_174
*785 FILLER_24_177
*786 FILLER_24_180
*787 FILLER_24_182
*788 FILLER_24_24
*789 FILLER_24_34
*790 FILLER_24_37
*791 FILLER_24_64
*792 FILLER_24_66
*793 FILLER_24_69
*794 FILLER_24_97
*795 FILLER_25_129
*796 FILLER_25_138
*797 FILLER_25_142
*798 FILLER_25_151
*799 FILLER_25_179
*800 FILLER_25_183
*801 FILLER_25_191
*802 FILLER_25_2
*803 FILLER_25_209
*804 FILLER_25_212
*805 FILLER_25_215
*806 FILLER_25_45
*807 FILLER_25_47
*808 FILLER_25_57
*809 FILLER_25_69
*810 FILLER_25_72
*811 FILLER_25_79
*812 FILLER_25_9
*813 FILLER_25_93
*814 FILLER_26_100
*815 FILLER_26_104
*816 FILLER_26_107
*817 FILLER_26_145
*818 FILLER_26_149
*819 FILLER_26_161
*820 FILLER_26_165
*821 FILLER_26_174
*822 FILLER_26_177
*823 FILLER_26_180
*824 FILLER_26_184
*825 FILLER_26_188
*826 FILLER_26_19
*827 FILLER_26_192
*828 FILLER_26_2
*829 FILLER_26_209
*830 FILLER_26_29
*831 FILLER_26_33
*832 FILLER_26_37
*833 FILLER_26_72
*834 FILLER_26_85
*835 FILLER_26_87
*836 FILLER_26_9
*837 FILLER_27_129
*838 FILLER_27_136
*839 FILLER_27_142
*840 FILLER_27_145
*841 FILLER_27_153
*842 FILLER_27_160
*843 FILLER_27_164
*844 FILLER_27_168
*845 FILLER_27_172
*846 FILLER_27_176
*847 FILLER_27_180
*848 FILLER_27_199
*849 FILLER_27_209
*850 FILLER_27_212
*851 FILLER_27_216
*852 FILLER_27_38
*853 FILLER_27_47
*854 FILLER_27_51
*855 FILLER_27_69
*856 FILLER_27_72
*857 FILLER_27_81
*858 FILLER_27_93
*859 FILLER_28_10
*860 FILLER_28_103
*861 FILLER_28_107
*862 FILLER_28_110
*863 FILLER_28_112
*864 FILLER_28_147
*865 FILLER_28_151
*866 FILLER_28_155
*867 FILLER_28_159
*868 FILLER_28_16
*869 FILLER_28_163
*870 FILLER_28_167
*871 FILLER_28_177
*872 FILLER_28_193
*873 FILLER_28_34
*874 FILLER_28_37
*875 FILLER_28_45
*876 FILLER_28_65
*877 FILLER_28_83
*878 FILLER_28_95
*879 FILLER_29_103
*880 FILLER_29_117
*881 FILLER_29_124
*882 FILLER_29_131
*883 FILLER_29_137
*884 FILLER_29_139
*885 FILLER_29_142
*886 FILLER_29_147
*887 FILLER_29_151
*888 FILLER_29_155
*889 FILLER_29_159
*890 FILLER_29_199
*891 FILLER_29_2
*892 FILLER_29_209
*893 FILLER_29_212
*894 FILLER_29_215
*895 FILLER_29_37
*896 FILLER_29_47
*897 FILLER_29_51
*898 FILLER_29_53
*899 FILLER_29_60
*900 FILLER_29_69
*901 FILLER_29_72
*902 FILLER_29_83
*903 FILLER_29_91
*904 FILLER_29_99
*905 FILLER_2_104
*906 FILLER_2_107
*907 FILLER_2_142
*908 FILLER_2_152
*909 FILLER_2_156
*910 FILLER_2_17
*911 FILLER_2_172
*912 FILLER_2_174
*913 FILLER_2_177
*914 FILLER_2_212
*915 FILLER_2_216
*916 FILLER_2_27
*917 FILLER_2_34
*918 FILLER_2_37
*919 FILLER_2_46
*920 FILLER_2_50
*921 FILLER_2_7
*922 FILLER_2_88
*923 FILLER_2_92
*924 FILLER_30_10
*925 FILLER_30_101
*926 FILLER_30_104
*927 FILLER_30_107
*928 FILLER_30_125
*929 FILLER_30_132
*930 FILLER_30_138
*931 FILLER_30_143
*932 FILLER_30_149
*933 FILLER_30_165
*934 FILLER_30_169
*935 FILLER_30_172
*936 FILLER_30_180
*937 FILLER_30_184
*938 FILLER_30_186
*939 FILLER_30_20
*940 FILLER_30_203
*941 FILLER_30_206
*942 FILLER_30_208
*943 FILLER_30_30
*944 FILLER_30_36
*945 FILLER_30_45
*946 FILLER_30_53
*947 FILLER_30_55
*948 FILLER_30_62
*949 FILLER_30_64
*950 FILLER_30_67
*951 FILLER_30_70
*952 FILLER_30_72
*953 FILLER_30_81
*954 FILLER_30_91
*955 FILLER_30_99
*956 FILLER_3_10
*957 FILLER_3_107
*958 FILLER_3_109
*959 FILLER_3_112
*960 FILLER_3_130
*961 FILLER_3_138
*962 FILLER_3_142
*963 FILLER_3_177
*964 FILLER_3_194
*965 FILLER_3_198
*966 FILLER_3_20
*967 FILLER_3_200
*968 FILLER_3_209
*969 FILLER_3_212
*970 FILLER_3_215
*971 FILLER_3_22
*972 FILLER_3_29
*973 FILLER_3_65
*974 FILLER_3_69
*975 FILLER_3_72
*976 FILLER_4_10
*977 FILLER_4_104
*978 FILLER_4_107
*979 FILLER_4_124
*980 FILLER_4_130
*981 FILLER_4_166
*982 FILLER_4_174
*983 FILLER_4_177
*984 FILLER_4_186
*985 FILLER_4_196
*986 FILLER_4_20
*987 FILLER_4_200
*988 FILLER_4_209
*989 FILLER_4_30
*990 FILLER_4_34
*991 FILLER_4_37
*992 FILLER_4_72
*993 FILLER_4_76
*994 FILLER_4_86
*995 FILLER_4_94
*996 FILLER_5_107
*997 FILLER_5_137
*998 FILLER_5_139
*999 FILLER_5_142
*1000 FILLER_5_172
*1001 FILLER_5_182
*1002 FILLER_5_199
*1003 FILLER_5_209
*1004 FILLER_5_212
*1005 FILLER_5_215
*1006 FILLER_5_44
*1007 FILLER_5_51
*1008 FILLER_5_69
*1009 FILLER_5_72
*1010 FILLER_5_8
*1011 FILLER_6_10
*1012 FILLER_6_102
*1013 FILLER_6_104
*1014 FILLER_6_107
*1015 FILLER_6_114
*1016 FILLER_6_139
*1017 FILLER_6_14
*1018 FILLER_6_151
*1019 FILLER_6_161
*1020 FILLER_6_171
*1021 FILLER_6_177
*1022 FILLER_6_215
*1023 FILLER_6_24
*1024 FILLER_6_34
*1025 FILLER_6_37
*1026 FILLER_6_64
*1027 FILLER_7_105
*1028 FILLER_7_107
*1029 FILLER_7_124
*1030 FILLER_7_136
*1031 FILLER_7_142
*1032 FILLER_7_151
*1033 FILLER_7_161
*1034 FILLER_7_165
*1035 FILLER_7_192
*1036 FILLER_7_209
*1037 FILLER_7_212
*1038 FILLER_7_215
*1039 FILLER_7_43
*1040 FILLER_7_51
*1041 FILLER_7_69
*1042 FILLER_7_7
*1043 FILLER_7_72
*1044 FILLER_7_77
*1045 FILLER_8_100
*1046 FILLER_8_104
*1047 FILLER_8_107
*1048 FILLER_8_124
*1049 FILLER_8_149
*1050 FILLER_8_16
*1051 FILLER_8_168
*1052 FILLER_8_172
*1053 FILLER_8_174
*1054 FILLER_8_177
*1055 FILLER_8_186
*1056 FILLER_8_190
*1057 FILLER_8_199
*1058 FILLER_8_34
*1059 FILLER_8_37
*1060 FILLER_8_46
*1061 FILLER_8_48
*1062 FILLER_8_57
*1063 FILLER_8_6
*1064 FILLER_8_64
*1065 FILLER_9_112
*1066 FILLER_9_114
*1067 FILLER_9_133
*1068 FILLER_9_137
*1069 FILLER_9_139
*1070 FILLER_9_142
*1071 FILLER_9_151
*1072 FILLER_9_155
*1073 FILLER_9_157
*1074 FILLER_9_192
*1075 FILLER_9_2
*1076 FILLER_9_209
*1077 FILLER_9_212
*1078 FILLER_9_215
*1079 FILLER_9_41
*1080 FILLER_9_5
*1081 FILLER_9_59
*1082 FILLER_9_69
*1083 FILLER_9_72
*1084 FILLER_9_75
*1085 PHY_EDGE_ROW_0_Left_31
*1086 PHY_EDGE_ROW_0_Right_0
*1087 PHY_EDGE_ROW_10_Left_41
*1088 PHY_EDGE_ROW_10_Right_10
*1089 PHY_EDGE_ROW_11_Left_42
*1090 PHY_EDGE_ROW_11_Right_11
*1091 PHY_EDGE_ROW_12_Left_43
*1092 PHY_EDGE_ROW_12_Right_12
*1093 PHY_EDGE_ROW_13_Left_44
*1094 PHY_EDGE_ROW_13_Right_13
*1095 PHY_EDGE_ROW_14_Left_45
*1096 PHY_EDGE_ROW_14_Right_14
*1097 PHY_EDGE_ROW_15_Left_46
*1098 PHY_EDGE_ROW_15_Right_15
*1099 PHY_EDGE_ROW_16_Left_47
*1100 PHY_EDGE_ROW_16_Right_16
*1101 PHY_EDGE_ROW_17_Left_48
*1102 PHY_EDGE_ROW_17_Right_17
*1103 PHY_EDGE_ROW_18_Left_49
*1104 PHY_EDGE_ROW_18_Right_18
*1105 PHY_EDGE_ROW_19_Left_50
*1106 PHY_EDGE_ROW_19_Right_19
*1107 PHY_EDGE_ROW_1_Left_32
*1108 PHY_EDGE_ROW_1_Right_1
*1109 PHY_EDGE_ROW_20_Left_51
*1110 PHY_EDGE_ROW_20_Right_20
*1111 PHY_EDGE_ROW_21_Left_52
*1112 PHY_EDGE_ROW_21_Right_21
*1113 PHY_EDGE_ROW_22_Left_53
*1114 PHY_EDGE_ROW_22_Right_22
*1115 PHY_EDGE_ROW_23_Left_54
*1116 PHY_EDGE_ROW_23_Right_23
*1117 PHY_EDGE_ROW_24_Left_55
*1118 PHY_EDGE_ROW_24_Right_24
*1119 PHY_EDGE_ROW_25_Left_56
*1120 PHY_EDGE_ROW_25_Right_25
*1121 PHY_EDGE_ROW_26_Left_57
*1122 PHY_EDGE_ROW_26_Right_26
*1123 PHY_EDGE_ROW_27_Left_58
*1124 PHY_EDGE_ROW_27_Right_27
*1125 PHY_EDGE_ROW_28_Left_59
*1126 PHY_EDGE_ROW_28_Right_28
*1127 PHY_EDGE_ROW_29_Left_60
*1128 PHY_EDGE_ROW_29_Right_29
*1129 PHY_EDGE_ROW_2_Left_33
*1130 PHY_EDGE_ROW_2_Right_2
*1131 PHY_EDGE_ROW_30_Left_61
*1132 PHY_EDGE_ROW_30_Right_30
*1133 PHY_EDGE_ROW_3_Left_34
*1134 PHY_EDGE_ROW_3_Right_3
*1135 PHY_EDGE_ROW_4_Left_35
*1136 PHY_EDGE_ROW_4_Right_4
*1137 PHY_EDGE_ROW_5_Left_36
*1138 PHY_EDGE_ROW_5_Right_5
*1139 PHY_EDGE_ROW_6_Left_37
*1140 PHY_EDGE_ROW_6_Right_6
*1141 PHY_EDGE_ROW_7_Left_38
*1142 PHY_EDGE_ROW_7_Right_7
*1143 PHY_EDGE_ROW_8_Left_39
*1144 PHY_EDGE_ROW_8_Right_8
*1145 PHY_EDGE_ROW_9_Left_40
*1146 PHY_EDGE_ROW_9_Right_9
*1147 TAP_TAPCELL_ROW_0_62
*1148 TAP_TAPCELL_ROW_0_63
*1149 TAP_TAPCELL_ROW_0_64
*1150 TAP_TAPCELL_ROW_0_65
*1151 TAP_TAPCELL_ROW_0_66
*1152 TAP_TAPCELL_ROW_0_67
*1153 TAP_TAPCELL_ROW_10_95
*1154 TAP_TAPCELL_ROW_10_96
*1155 TAP_TAPCELL_ROW_10_97
*1156 TAP_TAPCELL_ROW_11_100
*1157 TAP_TAPCELL_ROW_11_98
*1158 TAP_TAPCELL_ROW_11_99
*1159 TAP_TAPCELL_ROW_12_101
*1160 TAP_TAPCELL_ROW_12_102
*1161 TAP_TAPCELL_ROW_12_103
*1162 TAP_TAPCELL_ROW_13_104
*1163 TAP_TAPCELL_ROW_13_105
*1164 TAP_TAPCELL_ROW_13_106
*1165 TAP_TAPCELL_ROW_14_107
*1166 TAP_TAPCELL_ROW_14_108
*1167 TAP_TAPCELL_ROW_14_109
*1168 TAP_TAPCELL_ROW_15_110
*1169 TAP_TAPCELL_ROW_15_111
*1170 TAP_TAPCELL_ROW_15_112
*1171 TAP_TAPCELL_ROW_16_113
*1172 TAP_TAPCELL_ROW_16_114
*1173 TAP_TAPCELL_ROW_16_115
*1174 TAP_TAPCELL_ROW_17_116
*1175 TAP_TAPCELL_ROW_17_117
*1176 TAP_TAPCELL_ROW_17_118
*1177 TAP_TAPCELL_ROW_18_119
*1178 TAP_TAPCELL_ROW_18_120
*1179 TAP_TAPCELL_ROW_18_121
*1180 TAP_TAPCELL_ROW_19_122
*1181 TAP_TAPCELL_ROW_19_123
*1182 TAP_TAPCELL_ROW_19_124
*1183 TAP_TAPCELL_ROW_1_68
*1184 TAP_TAPCELL_ROW_1_69
*1185 TAP_TAPCELL_ROW_1_70
*1186 TAP_TAPCELL_ROW_20_125
*1187 TAP_TAPCELL_ROW_20_126
*1188 TAP_TAPCELL_ROW_20_127
*1189 TAP_TAPCELL_ROW_21_128
*1190 TAP_TAPCELL_ROW_21_129
*1191 TAP_TAPCELL_ROW_21_130
*1192 TAP_TAPCELL_ROW_22_131
*1193 TAP_TAPCELL_ROW_22_132
*1194 TAP_TAPCELL_ROW_22_133
*1195 TAP_TAPCELL_ROW_23_134
*1196 TAP_TAPCELL_ROW_23_135
*1197 TAP_TAPCELL_ROW_23_136
*1198 TAP_TAPCELL_ROW_24_137
*1199 TAP_TAPCELL_ROW_24_138
*1200 TAP_TAPCELL_ROW_24_139
*1201 TAP_TAPCELL_ROW_25_140
*1202 TAP_TAPCELL_ROW_25_141
*1203 TAP_TAPCELL_ROW_25_142
*1204 TAP_TAPCELL_ROW_26_143
*1205 TAP_TAPCELL_ROW_26_144
*1206 TAP_TAPCELL_ROW_26_145
*1207 TAP_TAPCELL_ROW_27_146
*1208 TAP_TAPCELL_ROW_27_147
*1209 TAP_TAPCELL_ROW_27_148
*1210 TAP_TAPCELL_ROW_28_149
*1211 TAP_TAPCELL_ROW_28_150
*1212 TAP_TAPCELL_ROW_28_151
*1213 TAP_TAPCELL_ROW_29_152
*1214 TAP_TAPCELL_ROW_29_153
*1215 TAP_TAPCELL_ROW_29_154
*1216 TAP_TAPCELL_ROW_2_71
*1217 TAP_TAPCELL_ROW_2_72
*1218 TAP_TAPCELL_ROW_2_73
*1219 TAP_TAPCELL_ROW_30_155
*1220 TAP_TAPCELL_ROW_30_156
*1221 TAP_TAPCELL_ROW_30_157
*1222 TAP_TAPCELL_ROW_30_158
*1223 TAP_TAPCELL_ROW_30_159
*1224 TAP_TAPCELL_ROW_30_160
*1225 TAP_TAPCELL_ROW_3_74
*1226 TAP_TAPCELL_ROW_3_75
*1227 TAP_TAPCELL_ROW_3_76
*1228 TAP_TAPCELL_ROW_4_77
*1229 TAP_TAPCELL_ROW_4_78
*1230 TAP_TAPCELL_ROW_4_79
*1231 TAP_TAPCELL_ROW_5_80
*1232 TAP_TAPCELL_ROW_5_81
*1233 TAP_TAPCELL_ROW_5_82
*1234 TAP_TAPCELL_ROW_6_83
*1235 TAP_TAPCELL_ROW_6_84
*1236 TAP_TAPCELL_ROW_6_85
*1237 TAP_TAPCELL_ROW_7_86
*1238 TAP_TAPCELL_ROW_7_87
*1239 TAP_TAPCELL_ROW_7_88
*1240 TAP_TAPCELL_ROW_8_89
*1241 TAP_TAPCELL_ROW_8_90
*1242 TAP_TAPCELL_ROW_8_91
*1243 TAP_TAPCELL_ROW_9_92
*1244 TAP_TAPCELL_ROW_9_93
*1245 TAP_TAPCELL_ROW_9_94
*1246 _160_
*1247 _161_
*1248 _162_
*1249 _163_
*1250 _164_
*1251 _165_
*1252 _166_
*1253 _167_
*1254 _168_
*1255 _169_
*1256 _170_
*1257 _171_
*1258 _172_
*1259 _173_
*1260 _174_
*1261 _175_
*1262 _176_
*1263 _177_
*1264 _178_
*1265 _179_
*1266 _180_
*1267 _181_
*1268 _182_
*1269 _183_
*1270 _184_
*1271 _185_
*1272 _186_
*1273 _187_
*1274 _188_
*1275 _189_
*1276 _190_
*1277 _191_
*1278 _192_
*1279 _193_
*1280 _194_
*1281 _195_
*1282 _196_
*1283 _197_
*1284 _198_
*1285 _199_
*1286 _200_
*1287 _201_
*1288 _202_
*1289 _203_
*1290 _204_
*1291 _205_
*1292 _206_
*1293 _207_
*1294 _208_
*1295 _209_
*1296 _210_
*1297 _211_
*1298 _212_
*1299 _213_
*1300 _214_
*1301 _215_
*1302 _216_
*1303 _217_
*1304 _218_
*1305 _219_
*1306 _220_
*1307 _221_
*1308 _222_
*1309 _223_
*1310 _224_
*1311 _225_
*1312 _226_
*1313 _227_
*1314 _228_
*1315 _229_
*1316 _230_
*1317 _231_
*1318 _232_
*1319 _233_
*1320 _234_
*1321 _235_
*1322 _236_
*1323 _237_
*1324 _238_
*1325 _239_
*1326 _240_
*1327 _241_
*1328 _242_
*1329 _243_
*1330 _244_
*1331 _245_
*1332 _246_
*1333 _247_
*1334 _248_
*1335 _249_
*1336 _250_
*1337 _251_
*1338 _252_
*1339 _253_
*1340 _254_
*1341 _255_
*1342 _256_
*1343 _257_
*1344 _258_
*1345 _259_
*1346 _260_
*1347 _261_
*1348 _262_
*1349 _263_
*1350 _264_
*1351 _265_
*1352 _266_
*1353 _267_
*1354 _268_
*1355 _269_
*1356 _270_
*1357 _271_
*1358 _272_
*1359 _273_
*1360 _274_
*1361 _275_
*1362 _276_
*1363 _277_
*1364 _278_
*1365 _279_
*1366 _280_
*1367 _281_
*1368 _282_
*1369 _283_
*1370 _284_
*1371 _285_
*1372 _286_
*1373 _287_
*1374 _288_
*1375 _289_
*1376 _290_
*1377 _291_
*1378 _292_
*1379 _293_
*1380 _294_
*1381 _295_
*1382 _296_
*1383 _297_
*1384 _298_
*1385 _299_
*1386 _300_
*1387 _301_
*1388 _302_
*1389 _303_
*1390 _304_
*1391 _305_
*1392 _306_
*1393 _307_
*1394 _308_
*1395 _309_
*1396 _310_
*1397 _311_
*1398 _312_
*1399 _313_
*1400 _314_
*1401 _315_
*1402 _316_
*1403 _317_
*1404 _318_
*1405 _319_
*1406 _320_
*1407 _321_
*1408 _322_
*1409 _323_
*1410 _324_
*1411 _325_
*1412 _326_
*1413 _327_
*1414 _328_
*1415 _329_
*1416 _330_
*1417 _331_
*1418 _332_
*1419 _333_
*1420 _334_
*1421 _335_
*1422 _336_
*1423 _337_
*1424 _338_
*1425 _339_
*1426 _340_
*1427 _341_
*1428 _342_
*1429 _343_
*1430 _344_
*1431 _345_
*1432 _346_
*1433 _347_
*1434 _348_
*1435 _349_
*1436 _350_
*1437 _351_
*1438 _352_
*1439 _353_
*1440 _354_
*1441 _355_
*1442 _356_
*1443 _357_
*1444 _358_
*1445 _359_
*1446 _360_
*1447 _361_
*1448 _362_
*1449 _363_
*1450 _364_
*1451 _365_
*1452 _366_
*1453 _367_
*1454 _368_
*1455 _369_
*1456 _370_
*1457 _371_
*1458 _372_
*1459 _373_
*1460 _374_
*1461 _375_
*1462 _376_
*1463 _377_
*1464 _378_
*1465 _379_
*1466 _380_
*1467 _381_
*1468 _382_
*1469 clkbuf_0_clk
*1470 clkbuf_4_0_0_clk
*1471 clkbuf_4_10_0_clk
*1472 clkbuf_4_11_0_clk
*1473 clkbuf_4_12_0_clk
*1474 clkbuf_4_13_0_clk
*1475 clkbuf_4_14_0_clk
*1476 clkbuf_4_15_0_clk
*1477 clkbuf_4_1_0_clk
*1478 clkbuf_4_2_0_clk
*1479 clkbuf_4_3_0_clk
*1480 clkbuf_4_4_0_clk
*1481 clkbuf_4_5_0_clk
*1482 clkbuf_4_6_0_clk
*1483 clkbuf_4_7_0_clk
*1484 clkbuf_4_8_0_clk
*1485 clkbuf_4_9_0_clk
*1486 clkload0
*1487 clkload1
*1488 clkload10
*1489 clkload11
*1490 clkload12
*1491 clkload13
*1492 clkload14
*1493 clkload2
*1494 clkload3
*1495 clkload4
*1496 clkload5
*1497 clkload6
*1498 clkload7
*1499 clkload8
*1500 clkload9
*1501 fanout44
*1502 fanout45
*1503 fanout47
*1504 fanout48
*1505 fanout49
*1506 fanout50
*1507 fanout51
*1508 fanout53
*1509 fanout54
*1510 fanout55
*1511 fanout56
*1512 fanout57
*1513 fanout58
*1514 fanout59
*1515 fanout60
*1516 fanout61
*1517 fanout62
*1518 fanout63
*1519 fanout64
*1520 fanout65
*1521 fanout66
*1522 fanout67
*1523 fanout68
*1524 fanout71
*1525 fanout72
*1526 fanout75
*1527 fanout78
*1528 fanout80
*1529 fanout82
*1530 fanout84
*1531 fanout87
*1532 fanout89
*1533 fanout91
*1534 fanout94
*1535 fanout96
*1536 fanout97
*1537 fanout98
*1538 hold99
*1539 input1
*1540 input2
*1541 input3
*1542 load_slew100
*1543 load_slew101
*1544 load_slew43
*1545 load_slew46
*1546 load_slew52
*1547 load_slew69
*1548 load_slew70
*1549 load_slew73
*1550 load_slew74
*1551 load_slew76
*1552 load_slew77
*1553 load_slew79
*1554 load_slew81
*1555 load_slew85
*1556 load_slew86
*1557 load_slew88
*1558 load_slew90
*1559 load_slew92
*1560 load_slew93
*1561 load_slew95
*1562 max_cap41
*1563 max_cap42
*1564 output10
*1565 output11
*1566 output12
*1567 output13
*1568 output14
*1569 output15
*1570 output16
*1571 output17
*1572 output18
*1573 output19
*1574 output20
*1575 output21
*1576 output22
*1577 output23
*1578 output24
*1579 output25
*1580 output26
*1581 output27
*1582 output28
*1583 output29
*1584 output30
*1585 output31
*1586 output32
*1587 output33
*1588 output34
*1589 output35
*1590 output36
*1591 output37
*1592 output38
*1593 output39
*1594 output4
*1595 output40
*1596 output5
*1597 output6
*1598 output7
*1599 output8
*1600 output9
*1601 wire83

*PORTS
busy O
clk I
cmp_clk O
cmp_rst O
comp_out I
dac_n[0] O
dac_n[1] O
dac_n[2] O
dac_n[3] O
dac_n[4] O
dac_n[5] O
dac_n[6] O
dac_n[7] O
dac_n[8] O
dac_n[9] O
dac_p[0] O
dac_p[1] O
dac_p[2] O
dac_p[3] O
dac_p[4] O
dac_p[5] O
dac_p[6] O
dac_p[7] O
dac_p[8] O
dac_p[9] O
dout[0] O
dout[1] O
dout[2] O
dout[3] O
dout[4] O
dout[5] O
dout[6] O
dout[7] O
dout[8] O
dout[9] O
dout_valid O
eoc O
rst_n I
samp_bot O
samp_top O
start I

*D_NET *3 0.00196735
*CONN
*P busy O
*I *1594:Z O *D gf180mcu_fd_sc_mcu7t5v0__buf_2
*CAP
1 busy 0.000982304
2 *1594:Z 0.000982304
3 busy *403:I 2.73715e-06
*RES
1 *1594:Z busy 11.624 
*END

*D_NET *4 0.0166393
*CONN
*P clk I
*I *411:I I *D gf180mcu_fd_sc_mcu7t5v0__antenna
*I *1469:I I *D gf180mcu_fd_sc_mcu7t5v0__clkbuf_16
*CAP
1 clk 0.00444796
2 *411:I 0
3 *1469:I 0.000847155
4 *4:30 0.00529511
5 *1469:I *1292:A1 2.38656e-05
6 *1469:I *1292:A2 0.000113199
7 *1469:I *1292:B1 1.97397e-05
8 *1469:I *1372:A2 0.000106877
9 *1469:I *1430:CLK 0
10 *1469:I *110:37 1.96871e-05
11 *1469:I *274:47 0.000592193
12 *1469:I *276:20 0.000165434
13 *1469:I *280:72 0.000126473
14 *1469:I *293:12 0.0002182
15 *1469:I *343:12 5.35362e-06
16 *4:30 cmp_clk 0
17 *4:30 *376:I 4.93689e-05
18 *4:30 *380:I 3.96073e-05
19 *4:30 *398:I 1.24662e-05
20 *4:30 *427:I 3.95985e-05
21 *4:30 *443:I 0.000155247
22 *4:30 *1252:I 0
23 *4:30 *1255:I 4.78732e-05
24 *4:30 *1275:A1 8.84807e-05
25 *4:30 *1276:A1 0.000268906
26 *4:30 *1293:A1 0.000138167
27 *4:30 *1299:A2 0.000171775
28 *4:30 *1377:A2 0.000661516
29 *4:30 *1457:D 0.000551101
30 *4:30 *1458:RN 1.84169e-05
31 *4:30 *1462:D 0.000389785
32 *4:30 *1569:I 0.000194194
33 *4:30 *1597:I 1.78817e-06
34 *4:30 *1601:I 0.000203281
35 *4:30 *208:371 5.3258e-05
36 *4:30 *208:385 0.000182165
37 *4:30 *208:397 0.000207419
38 *4:30 *224:12 0.000120817
39 *4:30 *224:19 1.27762e-05
40 *4:30 *231:16 1.30206e-06
41 *4:30 *231:22 9.82775e-05
42 *4:30 *275:10 9.85311e-05
43 *4:30 *288:20 6.56199e-05
44 *4:30 *307:18 1.1472e-05
45 *4:30 *311:6 9.75546e-05
46 *4:30 *345:25 0.000677299
*RES
1 clk *4:30 45.66 
2 *4:30 *1469:I 20.988 
3 *4:30 *411:I 4.5 
*END

*D_NET *5 0.00510115
*CONN
*P cmp_clk O
*I *1596:Z O *D gf180mcu_fd_sc_mcu7t5v0__buf_2
*CAP
1 cmp_clk 0.00246341
2 *1596:Z 0.00246341
3 cmp_clk cmp_rst 0.000102699
4 cmp_clk *1597:I 7.16355e-05
5 cmp_clk *307:18 0
6 *4:30 cmp_clk 0
*RES
1 *1596:Z cmp_clk 24.34 
*END

*D_NET *6 0.00484984
*CONN
*P cmp_rst O
*I *1597:Z O *D gf180mcu_fd_sc_mcu7t5v0__buf_2
*CAP
1 cmp_rst 0.00147812
2 *1597:Z 0.00147812
3 cmp_rst dac_n[9] 0
4 cmp_rst *1382:A2 8.35178e-06
5 cmp_rst *1457:D 0.00012521
6 cmp_rst *1569:I 0.000460899
7 cmp_rst *307:18 0.00119645
8 cmp_clk cmp_rst 0.000102699
*RES
1 *1597:Z cmp_rst 21.22 
*END

*D_NET *7 0.0329506
*CONN
*P comp_out I
*I *440:I I *D gf180mcu_fd_sc_mcu7t5v0__antenna
*I *1539:I I *D gf180mcu_fd_sc_mcu7t5v0__dlyb_1
*CAP
1 comp_out 0.00113622
2 *440:I 0.00643106
3 *1539:I 0
4 *7:26 0.0145458
5 *7:9 0.009251
6 *440:I *323:16 0.00012883
7 *7:9 samp_top 0
8 *7:26 *1260:I 0
9 *7:26 *1303:A1 0.000118969
10 *7:26 *1315:B 0.000138591
11 *7:26 *1351:A2 0.000115185
12 *7:26 *1593:I 0.000105987
13 *7:26 *1594:I 0.000154496
14 *7:26 *166:22 0
15 *7:26 *171:24 0
16 *7:26 *239:18 0
17 *7:26 *269:44 0.000177472
18 *7:26 *269:65 0.000124299
19 *7:26 *276:114 0.000261408
20 *7:26 *289:38 0.000261273
*RES
1 comp_out *7:9 11.52 
2 *7:9 *1539:I 13.5 
3 *7:9 *7:26 27.7013 
4 *7:26 *440:I 46.9174 
*END

*D_NET *8 0.00149098
*CONN
*P dac_n[0] O
*I *1598:Z O *D gf180mcu_fd_sc_mcu7t5v0__buf_2
*CAP
1 dac_n[0] 0.00063185
2 *1598:Z 0.00063185
3 dac_n[0] dac_n[1] 0
4 dac_n[0] dac_p[9] 0
5 dac_n[0] *1367:A1 0.000183852
6 dac_n[0] *235:18 3.65529e-05
7 dac_n[0] *248:10 6.8763e-06
*RES
1 *1598:Z dac_n[0] 12.692 
*END

*D_NET *9 0.00118262
*CONN
*P dac_n[1] O
*I *1599:Z O *D gf180mcu_fd_sc_mcu7t5v0__buf_2
*CAP
1 dac_n[1] 0.000583388
2 *1599:Z 0.000583388
3 dac_n[1] dac_p[0] 0
4 dac_n[1] *235:18 1.58443e-05
5 dac_n[0] dac_n[1] 0
*RES
1 *1599:Z dac_n[1] 12.172 
*END

*D_NET *10 0.00227876
*CONN
*P dac_n[2] O
*I *1600:Z O *D gf180mcu_fd_sc_mcu7t5v0__buf_2
*CAP
1 dac_n[2] 0.000792792
2 *1600:Z 0.000792792
3 dac_n[2] dac_n[3] 0
4 dac_n[2] dac_p[0] 0.000194928
5 dac_n[2] *1564:I 0.00033253
6 dac_n[2] *1567:I 0.000119436
7 dac_n[2] *1571:I 1.13999e-05
8 dac_n[2] *235:18 2.38919e-05
9 dac_n[2] *319:16 1.09921e-05
*RES
1 *1600:Z dac_n[2] 14.148 
*END

*D_NET *11 0.00131145
*CONN
*P dac_n[3] O
*I *1564:Z O *D gf180mcu_fd_sc_mcu7t5v0__buf_2
*CAP
1 dac_n[3] 0.000598107
2 *1564:Z 0.000598107
3 dac_n[3] dac_n[4] 0
4 dac_n[3] *1367:A1 0.000113027
5 dac_n[3] *1367:A2 2.21369e-06
6 dac_n[2] dac_n[3] 0
*RES
1 *1564:Z dac_n[3] 12.484 
*END

*D_NET *12 0.0015421
*CONN
*P dac_n[4] O
*I *1565:Z O *D gf180mcu_fd_sc_mcu7t5v0__buf_2
*CAP
1 dac_n[4] 0.000694173
2 *1565:Z 0.000694173
3 dac_n[4] dac_n[5] 0
4 dac_n[4] *1566:I 0.000153751
5 dac_n[3] dac_n[4] 0
*RES
1 *1565:Z dac_n[4] 13.316 
*END

*D_NET *13 0.00178891
*CONN
*P dac_n[5] O
*I *1566:Z O *D gf180mcu_fd_sc_mcu7t5v0__buf_2
*CAP
1 dac_n[5] 0.00081249
2 *1566:Z 0.00081249
3 dac_n[5] dac_n[6] 0
4 dac_n[5] *1566:I 3.65659e-05
5 dac_n[5] *1567:I 6.51425e-05
6 dac_n[5] *210:23 6.22249e-05
7 dac_n[4] dac_n[5] 0
*RES
1 *1566:Z dac_n[5] 13.732 
*END

*D_NET *14 0.00361108
*CONN
*P dac_n[6] O
*I *1567:Z O *D gf180mcu_fd_sc_mcu7t5v0__buf_2
*CAP
1 dac_n[6] 0.00103668
2 *1567:Z 0.00103668
3 dac_n[6] dac_n[7] 2.8734e-05
4 dac_n[6] *1396:A2 3.3698e-05
5 dac_n[6] *1457:D 0.000491581
6 dac_n[6] *1458:CLK 0.000183002
7 dac_n[6] *1566:I 0
8 dac_n[6] *1567:I 2.74931e-05
9 dac_n[6] *210:23 0.000595163
10 dac_n[6] *296:10 0.000176867
11 dac_n[6] *298:76 1.18566e-06
12 dac_n[5] dac_n[6] 0
*RES
1 *1567:Z dac_n[6] 17.58 
*END

*D_NET *15 0.00453965
*CONN
*P dac_n[7] O
*I *1568:Z O *D gf180mcu_fd_sc_mcu7t5v0__buf_2
*CAP
1 dac_n[7] 0.00114366
2 *1568:Z 0.00114366
3 dac_n[7] dac_n[8] 5.19755e-05
4 dac_n[7] *1382:A2 0
5 dac_n[7] *1457:D 0.00157248
6 dac_n[7] *1458:D 0.000115982
7 dac_n[7] *1567:I 0.000225995
8 dac_n[7] *296:10 0.000204737
9 dac_n[7] *298:76 5.24396e-05
10 dac_n[6] dac_n[7] 2.8734e-05
*RES
1 *1568:Z dac_n[7] 19.14 
*END

*D_NET *16 0.00355254
*CONN
*P dac_n[8] O
*I *1569:Z O *D gf180mcu_fd_sc_mcu7t5v0__buf_2
*CAP
1 dac_n[8] 0.00132792
2 *1569:Z 0.00132792
3 dac_n[8] dac_n[9] 0
4 dac_n[8] *1382:A2 0.000180951
5 dac_n[8] *1458:D 0.000663763
6 dac_n[7] dac_n[8] 5.19755e-05
*RES
1 *1569:Z dac_n[8] 17.372 
*END

*D_NET *17 0.00337995
*CONN
*P dac_n[9] O
*I *1570:Z O *D gf180mcu_fd_sc_mcu7t5v0__buf_2
*CAP
1 dac_n[9] 0.0013499
2 *1570:Z 0.0013499
3 dac_n[9] *1252:I 0
4 dac_n[9] *1457:D 8.78195e-05
5 dac_n[9] *1458:RN 0.000328477
6 dac_n[9] *1460:RN 5.29249e-05
7 dac_n[9] *1570:I 0.000200178
8 dac_n[9] *307:18 1.07369e-05
9 cmp_rst dac_n[9] 0
10 dac_n[8] dac_n[9] 0
*RES
1 *1570:Z dac_n[9] 18.308 
*END

*D_NET *18 0.00917911
*CONN
*P dac_p[0] O
*I *1571:Z O *D gf180mcu_fd_sc_mcu7t5v0__buf_2
*CAP
1 dac_p[0] 0.00435528
2 *1571:Z 0.00435528
3 dac_p[0] dac_p[1] 0
4 dac_p[0] *235:18 0.000273626
5 dac_n[1] dac_p[0] 0
6 dac_n[2] dac_p[0] 0.000194928
*RES
1 *1571:Z dac_p[0] 45.716 
*END

*D_NET *19 0.0100366
*CONN
*P dac_p[1] O
*I *1572:Z O *D gf180mcu_fd_sc_mcu7t5v0__buf_2
*CAP
1 dac_p[1] 0.00330614
2 *1572:Z 0.00330614
3 dac_p[1] dac_p[2] 0
4 dac_p[1] dac_p[4] 4.65253e-06
5 dac_p[1] dac_p[5] 0.000864507
6 dac_p[1] dac_p[6] 0
7 dac_p[1] *447:I 0.000834764
8 dac_p[1] *1266:I 4.71802e-05
9 dac_p[1] *1360:A1 0.000107334
10 dac_p[1] *1364:A2 0.000231028
11 dac_p[1] *1398:I1 0.000113027
12 dac_p[1] *1450:D 0.000210182
13 dac_p[1] *1470:I 1.19663e-05
14 dac_p[1] *1478:I 0.000108704
15 dac_p[1] *208:21 4.50738e-05
16 dac_p[1] *208:23 9.61273e-05
17 dac_p[1] *235:18 0.000187085
18 dac_p[1] *246:14 0.000128038
19 dac_p[1] *272:31 0.00020369
20 dac_p[1] *272:46 0.000136023
21 dac_p[1] *272:59 1.1752e-05
22 dac_p[1] *273:61 1.32294e-05
23 dac_p[1] *281:10 6.99477e-05
24 dac_p[0] dac_p[1] 0
*RES
1 *1572:Z dac_p[1] 41.66 
*END

*D_NET *20 0.00970269
*CONN
*P dac_p[2] O
*I *1573:Z O *D gf180mcu_fd_sc_mcu7t5v0__buf_2
*CAP
1 dac_p[2] 0.00139778
2 *1573:Z 0.00139778
3 dac_p[2] dac_p[3] 0
4 dac_p[2] dac_p[7] 0
5 dac_p[2] *1262:I 0.000315966
6 dac_p[2] *1426:D 0.00138107
7 dac_p[2] *1456:D 0.000189975
8 dac_p[2] *47:20 0
9 dac_p[2] *94:16 0.00245363
10 dac_p[2] *120:18 0.00203668
11 dac_p[2] *241:6 0.000529809
12 dac_p[1] dac_p[2] 0
*RES
1 *1573:Z dac_p[2] 24.132 
*END

*D_NET *21 0.00590696
*CONN
*P dac_p[3] O
*I *1574:Z O *D gf180mcu_fd_sc_mcu7t5v0__buf_2
*CAP
1 dac_p[3] 0.00151399
2 *1574:Z 0.00151399
3 dac_p[3] dac_p[4] 0
4 dac_p[3] dac_p[7] 5.6563e-05
5 dac_p[3] *1246:I 1.20718e-05
6 dac_p[3] *1291:A2 1.26446e-05
7 dac_p[3] *1357:A2 9.96908e-05
8 dac_p[3] *1372:B 0.000120438
9 dac_p[3] *1487:I 0.000264104
10 dac_p[3] *122:20 0.000105483
11 dac_p[3] *175:16 0.000632454
12 dac_p[3] *273:61 0
13 dac_p[3] *296:46 0.00131618
14 dac_p[3] *297:26 0.000259344
15 dac_p[2] dac_p[3] 0
*RES
1 *1574:Z dac_p[3] 20.596 
*END

*D_NET *22 0.00655218
*CONN
*P dac_p[4] O
*I *1575:Z O *D gf180mcu_fd_sc_mcu7t5v0__buf_2
*CAP
1 dac_p[4] 0.00144528
2 *1575:Z 0.00144528
3 dac_p[4] dac_p[5] 0
4 dac_p[4] *1266:I 0.000104077
5 dac_p[4] *1351:B 3.18325e-05
6 dac_p[4] *1360:B 0.000104393
7 dac_p[4] *1448:CLK 0.00100234
8 dac_p[4] *1449:D 0.000300483
9 dac_p[4] *1449:CLK 4.93216e-05
10 dac_p[4] *1487:I 0.00039949
11 dac_p[4] *1579:I 0.000132978
12 dac_p[4] *175:16 4.16532e-05
13 dac_p[4] *235:18 0.000347872
14 dac_p[4] *246:14 1.5994e-05
15 dac_p[4] *246:39 6.28076e-05
16 dac_p[4] *273:61 0.000556827
17 dac_p[4] *281:29 0.000344213
18 dac_p[4] *281:35 0.000162681
19 dac_p[1] dac_p[4] 4.65253e-06
20 dac_p[3] dac_p[4] 0
*RES
1 *1575:Z dac_p[4] 21.636 
*END

*D_NET *23 0.00575706
*CONN
*P dac_p[5] O
*I *1576:Z O *D gf180mcu_fd_sc_mcu7t5v0__buf_2
*CAP
1 dac_p[5] 0.00183437
2 *1576:Z 0.00183437
3 dac_p[5] dac_p[6] 0
4 dac_p[5] *447:I 0.000112356
5 dac_p[5] *1267:I 1.08757e-05
6 dac_p[5] *1450:D 0.000280755
7 dac_p[5] *1478:I 9.33873e-05
8 dac_p[5] *230:39 0.000189025
9 dac_p[5] *245:31 0.000129493
10 dac_p[5] *246:14 0.000382817
11 dac_p[5] *247:24 2.51067e-05
12 dac_p[1] dac_p[5] 0.000864507
13 dac_p[4] dac_p[5] 0
*RES
1 *1576:Z dac_p[5] 21.636 
*END

*D_NET *24 0.00845078
*CONN
*P dac_p[6] O
*I *1577:Z O *D gf180mcu_fd_sc_mcu7t5v0__buf_2
*CAP
1 dac_p[6] 0.00150267
2 *1577:Z 0.00150267
3 dac_p[6] dac_p[7] 0.000866604
4 dac_p[6] dac_p[8] 0.0023395
5 dac_p[6] *349:I 9.84747e-05
6 dac_p[6] *1246:I 0.000186231
7 dac_p[6] *1267:I 3.74121e-06
8 dac_p[6] *1364:A2 0.00102006
9 dac_p[6] *1366:B 0.000263733
10 dac_p[6] *1372:B 0.000194511
11 dac_p[6] *94:16 0.000113027
12 dac_p[6] *235:18 0.000162372
13 dac_p[6] *273:61 7.40777e-05
14 dac_p[6] *319:16 0.000123099
15 dac_p[1] dac_p[6] 0
16 dac_p[5] dac_p[6] 0
*RES
1 *1577:Z dac_p[6] 25.172 
*END

*D_NET *25 0.0111137
*CONN
*P dac_p[7] O
*I *1578:Z O *D gf180mcu_fd_sc_mcu7t5v0__buf_2
*CAP
1 dac_p[7] 0.00176704
2 *1578:Z 0.00176704
3 dac_p[7] dac_p[8] 1.17668e-05
4 dac_p[7] *1246:I 0.000178346
5 dac_p[7] *1265:I 0
6 dac_p[7] *1364:A2 0.000876584
7 dac_p[7] *1366:B 0.0029361
8 dac_p[7] *1449:CLK 0.00105056
9 dac_p[7] *1451:CLK 0.000497696
10 dac_p[7] *1564:I 0.000189199
11 dac_p[7] *1579:I 0.000268116
12 dac_p[7] *94:16 0
13 dac_p[7] *217:17 0.000122667
14 dac_p[7] *247:24 0.000525466
15 dac_p[7] *249:12 0
16 dac_p[2] dac_p[7] 0
17 dac_p[3] dac_p[7] 5.6563e-05
18 dac_p[6] dac_p[7] 0.000866604
*RES
1 *1578:Z dac_p[7] 36.148 
*END

*D_NET *26 0.00970267
*CONN
*P dac_p[8] O
*I *1579:Z O *D gf180mcu_fd_sc_mcu7t5v0__buf_2
*CAP
1 dac_p[8] 0.00118311
2 *1579:Z 0.00118311
3 dac_p[8] dac_p[9] 0
4 dac_p[8] *1265:I 0.000148044
5 dac_p[8] *1366:B 0.00309603
6 dac_p[8] *1564:I 0.000713451
7 dac_p[8] *1566:I 0.000713451
8 dac_p[8] *235:18 1.97754e-05
9 dac_p[8] *247:24 0.000230477
10 dac_p[8] *249:12 6.39463e-05
11 dac_p[6] dac_p[8] 0.0023395
12 dac_p[7] dac_p[8] 1.17668e-05
*RES
1 *1579:Z dac_p[8] 24.236 
*END

*D_NET *27 0.00238327
*CONN
*P dac_p[9] O
*I *1580:Z O *D gf180mcu_fd_sc_mcu7t5v0__buf_2
*CAP
1 dac_p[9] 0.000690873
2 *1580:Z 0.000690873
3 dac_p[9] *1566:I 0.000500761
4 dac_p[9] *247:24 0.000500761
5 dac_n[0] dac_p[9] 0
6 dac_p[8] dac_p[9] 0
*RES
1 *1580:Z dac_p[9] 13.732 
*END

*D_NET *28 0.00184688
*CONN
*P dout[0] O
*I *1581:Z O *D gf180mcu_fd_sc_mcu7t5v0__buf_2
*CAP
1 dout[0] 0.000923441
2 *1581:Z 0.000923441
*RES
1 *1581:Z dout[0] 14.356 
*END

*D_NET *29 0.0023019
*CONN
*P dout[1] O
*I *1582:Z O *D gf180mcu_fd_sc_mcu7t5v0__buf_2
*CAP
1 dout[1] 0.00104803
2 *1582:Z 0.00104803
3 dout[1] *366:I 0
4 dout[1] *405:I 6.7406e-05
5 dout[1] *1581:I 8.80888e-05
6 dout[1] *285:51 7.45804e-06
7 dout[1] *314:6 3.09205e-05
8 dout[1] *314:16 1.19663e-05
*RES
1 *1582:Z dout[1] 15.396 
*END

*D_NET *30 0.00317462
*CONN
*P dout[2] O
*I *1583:Z O *D gf180mcu_fd_sc_mcu7t5v0__buf_2
*CAP
1 dout[2] 0.00116357
2 *1583:Z 0.00116357
3 dout[2] dout[3] 0.000419276
4 dout[2] *1419:RN 0.000113016
5 dout[2] *1555:I 5.18149e-05
6 dout[2] *1583:I 7.03199e-05
7 dout[2] *252:10 5.76078e-05
8 dout[2] *254:12 0
9 dout[2] *315:19 0.000135435
*RES
1 *1583:Z dout[2] 16.748 
*END

*D_NET *31 0.004763
*CONN
*P dout[3] O
*I *1584:Z O *D gf180mcu_fd_sc_mcu7t5v0__buf_2
*CAP
1 dout[3] 0.00141782
2 *1584:Z 0.00141782
3 dout[3] *1389:I0 0.00026796
4 dout[3] *1419:RN 0.000766163
5 dout[3] *1530:I 0.000280035
6 dout[3] *1583:I 2.81522e-06
7 dout[3] *1584:I 0.000119321
8 dout[3] *232:18 7.00677e-05
9 dout[3] *285:51 1.71324e-06
10 dout[2] dout[3] 0.000419276
*RES
1 *1584:Z dout[3] 20.388 
*END

*D_NET *32 0.00300179
*CONN
*P dout[4] O
*I *1585:Z O *D gf180mcu_fd_sc_mcu7t5v0__buf_2
*CAP
1 dout[4] 0.00110883
2 *1585:Z 0.00110883
3 dout[4] dout[5] 0.000122244
4 dout[4] *1389:I0 3.97036e-05
5 dout[4] *1420:RN 5.857e-05
6 dout[4] *1440:RN 0.000102348
7 dout[4] *1530:I 2.53026e-05
8 dout[4] *1557:I 6.40685e-06
9 dout[4] *232:16 0.000287593
10 dout[4] *285:27 3.01088e-05
11 dout[4] *285:33 0.000111856
*RES
1 *1585:Z dout[4] 17.164 
*END

*D_NET *33 0.00511866
*CONN
*P dout[5] O
*I *1586:Z O *D gf180mcu_fd_sc_mcu7t5v0__buf_2
*CAP
1 dout[5] 0.00129401
2 *1586:Z 0.00129401
3 dout[5] *373:I 0.000417177
4 dout[5] *441:I 0
5 dout[5] *1530:I 9.36651e-05
6 dout[5] *1559:I 0.000669672
7 dout[5] *232:16 0.000918725
8 dout[5] *257:8 0
9 dout[5] *283:8 3.92292e-05
10 dout[5] *285:27 1.32779e-05
11 dout[5] *323:18 0.000256653
12 dout[4] dout[5] 0.000122244
*RES
1 *1586:Z dout[5] 19.764 
*END

*D_NET *34 0.00564803
*CONN
*P dout[6] O
*I *1587:Z O *D gf180mcu_fd_sc_mcu7t5v0__buf_2
*CAP
1 dout[6] 0.00282402
2 *1587:Z 0.00282402
*RES
1 *1587:Z dout[6] 35.212 
*END

*D_NET *35 0.00347127
*CONN
*P dout[7] O
*I *1588:Z O *D gf180mcu_fd_sc_mcu7t5v0__buf_2
*CAP
1 dout[7] 0.0011283
2 *1588:Z 0.0011283
3 dout[7] *1393:I0 0.000185657
4 dout[7] *1423:RN 0.000122244
5 dout[7] *1560:I 0.000113016
6 dout[7] *1587:I 8.51959e-05
7 dout[7] *1588:I 5.40309e-05
8 dout[7] *326:10 0
9 dout[7] *326:23 0.000654535
*RES
1 *1588:Z dout[7] 17.684 
*END

*D_NET *36 0.00259303
*CONN
*P dout[8] O
*I *1589:Z O *D gf180mcu_fd_sc_mcu7t5v0__buf_2
*CAP
1 dout[8] 0.00123664
2 *1589:Z 0.00123664
3 dout[8] *1589:I 7.17602e-05
4 dout[8] *1590:I 4.79893e-05
*RES
1 *1589:Z dout[8] 17.06 
*END

*D_NET *37 0.00286191
*CONN
*P dout[9] O
*I *1590:Z O *D gf180mcu_fd_sc_mcu7t5v0__buf_2
*CAP
1 dout[9] 0.00135898
2 *1590:Z 0.00135898
3 dout[9] *442:I 2.39156e-06
4 dout[9] *1535:I 8.55595e-05
5 dout[9] *1587:I 5.60123e-05
6 dout[9] *40:13 0
*RES
1 *1590:Z dout[9] 17.892 
*END

*D_NET *38 0.00233435
*CONN
*P dout_valid O
*I *1591:Z O *D gf180mcu_fd_sc_mcu7t5v0__buf_2
*CAP
1 dout_valid 0.0011133
2 *1591:Z 0.0011133
3 dout_valid *1315:B 5.88579e-05
4 dout_valid *1591:I 4.13976e-05
5 dout_valid *276:114 7.49293e-06
*RES
1 *1591:Z dout_valid 21.872 
*END

*D_NET *39 0.00229333
*CONN
*P eoc O
*I *1592:Z O *D gf180mcu_fd_sc_mcu7t5v0__buf_2
*CAP
1 eoc 0.00113774
2 *1592:Z 0.00113774
3 eoc *276:91 1.78547e-05
*RES
1 *1592:Z eoc 22.08 
*END

*D_NET *40 0.0041665
*CONN
*P rst_n I
*I *1540:I I *D gf180mcu_fd_sc_mcu7t5v0__dlyb_1
*I *442:I I *D gf180mcu_fd_sc_mcu7t5v0__antenna
*CAP
1 rst_n 0.00136428
2 *1540:I 0
3 *442:I 0.000494394
4 *40:13 0.00185867
5 *442:I *1535:I 0.000182894
6 *442:I *1587:I 0.000100568
7 *40:13 *1529:I 5.57205e-05
8 *40:13 *1535:I 0.000107581
9 dout[9] *442:I 2.39156e-06
10 dout[9] *40:13 0
*RES
1 rst_n *40:13 18.412 
2 *40:13 *442:I 17.66 
3 *40:13 *1540:I 4.5 
*END

*D_NET *41 0.0045129
*CONN
*P samp_bot O
*I *1593:Z O *D gf180mcu_fd_sc_mcu7t5v0__buf_2
*CAP
1 samp_bot 0.00137875
2 *1593:Z 0.00137875
3 samp_bot samp_top 0
4 samp_bot *1262:I 0
5 samp_bot *1351:A2 0.000423426
6 samp_bot *1364:A1 0
7 samp_bot *1445:D 0.00118025
8 samp_bot *265:38 6.11486e-05
9 samp_bot *296:61 6.41072e-05
10 samp_bot *319:16 2.64624e-05
*RES
1 *1593:Z samp_bot 20.388 
*END

*D_NET *42 0.0022733
*CONN
*P samp_top O
*I *1595:Z O *D gf180mcu_fd_sc_mcu7t5v0__buf_2
*CAP
1 samp_top 0.0011295
2 *1595:Z 0.0011295
3 samp_top *1351:A2 1.43055e-05
4 samp_top *229:22 0
5 samp_bot samp_top 0
6 *7:9 samp_top 0
*RES
1 *1595:Z samp_top 15.812 
*END

*D_NET *43 0.00832411
*CONN
*P start I
*I *1541:I I *D gf180mcu_fd_sc_mcu7t5v0__dlyb_1
*I *443:I I *D gf180mcu_fd_sc_mcu7t5v0__antenna
*CAP
1 start 0.00107896
2 *1541:I 0.000193419
3 *443:I 0.000438327
4 *43:11 0.0017107
5 *443:I *1276:A1 9.13609e-05
6 *443:I *1299:A2 0.000871711
7 *443:I *1299:B 0.000190103
8 *443:I *1301:B1 0.00199852
9 *443:I *1410:A2 7.75241e-06
10 *443:I *1569:I 0.00101927
11 *443:I *98:12 0.000118632
12 *1541:I *1282:A2 2.73715e-06
13 *1541:I *1569:I 0.000223985
14 *1541:I *98:12 0.000223391
15 *1541:I *345:40 0
16 *4:30 *443:I 0.000155247
*RES
1 start *43:11 12.248 
2 *43:11 *443:I 18.464 
3 *43:11 *1541:I 11.08 
*END

*D_NET *44 0.00951607
*CONN
*I *1377:A1 I *D gf180mcu_fd_sc_mcu7t5v0__nor3_1
*I *1461:D I *D gf180mcu_fd_sc_mcu7t5v0__dffrnq_1
*I *1278:ZN O *D gf180mcu_fd_sc_mcu7t5v0__nor3_1
*CAP
1 *1377:A1 0.000125841
2 *1461:D 0.00018962
3 *1278:ZN 0.000745093
4 *44:10 0.00106055
5 *1377:A1 *1280:A3 1.40331e-05
6 *1377:A1 *1377:A2 9.09864e-05
7 *1377:A1 *1383:A3 0.000548443
8 *1377:A1 *1542:I 1.99386e-05
9 *1461:D *1280:A3 0.000570592
10 *1461:D *1464:CLK 0.000461436
11 *1461:D *126:10 5.6515e-05
12 *1461:D *223:12 0.000500772
13 *1461:D *305:12 0.000971425
14 *44:10 *1255:I 0.00102979
15 *44:10 *1278:A1 4.07478e-05
16 *44:10 *1278:A2 0.00169674
17 *44:10 *1280:A3 0.00023882
18 *44:10 *1288:B 0.000137301
19 *44:10 *1296:A3 0.000201257
20 *44:10 *1376:A1 0.000635547
21 *44:10 *1407:C 3.30571e-05
22 *44:10 *1601:I 7.41904e-06
23 *44:10 *113:16 1.23682e-05
24 *44:10 *126:10 0.000127773
25 *44:10 *127:12 0
*RES
1 *1278:ZN *44:10 18.152 
2 *44:10 *1461:D 13.16 
3 *44:10 *1377:A1 10.56 
*END

*D_NET *45 0.00896249
*CONN
*I *1462:D I *D gf180mcu_fd_sc_mcu7t5v0__dffrnq_1
*I *1276:ZN O *D gf180mcu_fd_sc_mcu7t5v0__nor2_1
*CAP
1 *1462:D 0.00188191
2 *1276:ZN 0.00188191
3 *1462:D *376:I 0.000167694
4 *1462:D *380:I 0.00011834
5 *1462:D *1255:I 7.95482e-05
6 *1462:D *1283:A1 0.000731308
7 *1462:D *1293:A2 0.000254748
8 *1462:D *1299:A2 0.000384896
9 *1462:D *1376:A1 0
10 *1462:D *1382:A1 0.00142969
11 *1462:D *1384:A1 0.00024022
12 *1462:D *1464:D 0.000176344
13 *1462:D *1464:RN 0.000472877
14 *1462:D *1465:RN 0
15 *1462:D *1471:I 0
16 *1462:D *1484:I 0.000331823
17 *1462:D *1553:I 6.50309e-05
18 *1462:D *100:54 2.33885e-05
19 *1462:D *116:20 1.40331e-05
20 *1462:D *224:19 1.07369e-05
21 *1462:D *288:20 0.000253693
22 *1462:D *288:76 2.11308e-05
23 *1462:D *306:8 3.33862e-05
24 *4:30 *1462:D 0.000389785
*RES
1 *1276:ZN *1462:D 35.784 
*END

*D_NET *46 0.00596589
*CONN
*I *1466:D I *D gf180mcu_fd_sc_mcu7t5v0__dffrnq_1
*I *1273:ZN O *D gf180mcu_fd_sc_mcu7t5v0__nor2_1
*CAP
1 *1466:D 0.000973831
2 *1273:ZN 0.000973831
3 *1466:D *1298:A3 3.38444e-05
4 *1466:D *1299:B 7.39735e-05
5 *1466:D *1346:A1 6.72555e-05
6 *1466:D *1346:A2 0.000127464
7 *1466:D *1375:A2 0.000424641
8 *1466:D *1412:B1 1.26446e-05
9 *1466:D *1415:A2 0.000323248
10 *1466:D *1462:RN 2.36218e-05
11 *1466:D *1488:I 0.000130726
12 *1466:D *123:45 0.000554595
13 *1466:D *123:52 0.000542192
14 *1466:D *123:65 0.000540748
15 *1466:D *208:457 0.000290492
16 *1466:D *211:52 0.000806574
17 *1466:D *310:16 6.02748e-05
18 *1466:D *341:14 2.18891e-06
19 *1466:D *344:27 0
20 *1466:D *344:56 3.74436e-06
21 *1466:D *344:60 0
*RES
1 *1273:ZN *1466:D 28.088 
*END

*D_NET *47 0.030507
*CONN
*I *1459:D I *D gf180mcu_fd_sc_mcu7t5v0__dffsnq_1
*I *1396:A1 I *D gf180mcu_fd_sc_mcu7t5v0__nor2_1
*I *1291:Z O *D gf180mcu_fd_sc_mcu7t5v0__or2_1
*CAP
1 *1459:D 0.000552173
2 *1396:A1 0
3 *1291:Z 0.000734283
4 *47:20 0.0030476
5 *47:8 0.00433405
6 *1459:D *1291:A2 8.19294e-05
7 *1459:D *1354:B 0.00061113
8 *1459:D *109:24 0.000203587
9 *1459:D *243:21 5.68712e-05
10 *1459:D *296:69 0.00035757
11 *47:8 *399:I 0.000971407
12 *47:8 *1291:A2 0.000319146
13 *47:8 *1426:D 0
14 *47:8 *1459:CLK 5.63044e-06
15 *47:20 *1374:A1 0
16 *47:20 *1448:CLK 0
17 *47:20 *1565:I 0.000750414
18 *47:20 *1566:I 0.000494642
19 *47:20 *1570:I 0
20 *47:20 *1574:I 7.80235e-06
21 *47:20 *1575:I 0.00183945
22 *47:20 *1578:I 0.00026757
23 *47:20 *1599:I 0.000173488
24 *47:20 *109:24 0.000548548
25 *47:20 *120:18 0.000112853
26 *47:20 *236:12 0.00119934
27 *47:20 *243:21 6.6799e-05
28 *47:20 *248:16 0.00512192
29 *47:20 *319:16 0.00864878
30 dac_p[2] *47:20 0
*RES
1 *1291:Z *47:8 14.512 
2 *47:8 *47:20 49.976 
3 *47:20 *1396:A1 9 
4 *47:8 *1459:D 13.784 
*END

*D_NET *48 0.013875
*CONN
*I *1460:D I *D gf180mcu_fd_sc_mcu7t5v0__dffrnq_1
*I *1289:ZN O *D gf180mcu_fd_sc_mcu7t5v0__nand2_1
*CAP
1 *1460:D 0.00215126
2 *1289:ZN 0.00215126
3 *1460:D *382:I 0.00102164
4 *1460:D *448:I 1.97798e-05
5 *1460:D *1274:A1 8.71617e-05
6 *1460:D *1432:D 0.0008227
7 *1460:D *1432:RN 0.000113027
8 *1460:D *1433:D 0.000197651
9 *1460:D *1464:D 3.59077e-05
10 *1460:D *99:12 0
11 *1460:D *121:24 0.00504394
12 *1460:D *296:116 0.00116345
13 *1460:D *305:8 0.00106723
*RES
1 *1289:ZN *1460:D 41.088 
*END

*D_NET *49 0.00293377
*CONN
*I *1463:D I *D gf180mcu_fd_sc_mcu7t5v0__dffrnq_1
*I *1286:ZN O *D gf180mcu_fd_sc_mcu7t5v0__nand2_1
*CAP
1 *1463:D 0.000883244
2 *1286:ZN 0.000883244
3 *1463:D *1342:B 0.000684605
4 *1463:D *1393:S 0
5 *1463:D *1444:CLK 0.000333288
6 *1463:D *1475:I 2.64776e-06
7 *1463:D *1492:I 2.81522e-06
8 *1463:D *113:6 0
9 *1463:D *274:108 1.18091e-06
10 *1463:D *276:192 0
11 *1463:D *339:12 0.000142744
*RES
1 *1286:ZN *1463:D 24.656 
*END

*D_NET *50 0.0140128
*CONN
*I *1464:D I *D gf180mcu_fd_sc_mcu7t5v0__dffrnq_1
*I *1283:ZN O *D gf180mcu_fd_sc_mcu7t5v0__nand2_1
*CAP
1 *1464:D 0.00224322
2 *1283:ZN 0.00224322
3 *1464:D *381:I 0.000327554
4 *1464:D *1281:A1 0.000164859
5 *1464:D *1282:A2 0.000103788
6 *1464:D *1283:A1 0.00593178
7 *1464:D *1293:A2 0.00028269
8 *1464:D *1299:A2 2.29665e-05
9 *1464:D *1383:A1 6.32781e-05
10 *1464:D *1383:A3 0.00017298
11 *1464:D *1384:A1 0.000128866
12 *1464:D *1396:A2 5.93448e-05
13 *1464:D *1432:RN 1.89503e-05
14 *1464:D *1464:RN 0.00046112
15 *1464:D *100:54 7.94203e-05
16 *1464:D *126:28 0.000262946
17 *1464:D *170:26 0.000544806
18 *1464:D *198:26 0.00016068
19 *1464:D *225:8 2.14739e-05
20 *1464:D *225:14 0.000342636
21 *1464:D *225:20 2.0809e-05
22 *1464:D *341:14 1.83232e-05
23 *1464:D *344:60 0.000124809
24 *1460:D *1464:D 3.59077e-05
25 *1462:D *1464:D 0.000176344
*RES
1 *1283:ZN *1464:D 40.568 
*END

*D_NET *51 0.00188342
*CONN
*I *1434:D I *D gf180mcu_fd_sc_mcu7t5v0__dffrnq_1
*I *1301:ZN O *D gf180mcu_fd_sc_mcu7t5v0__aoi22_1
*CAP
1 *1434:D 0.000403363
2 *1301:ZN 0.000403363
3 *1434:D *1299:B 1.17491e-05
4 *1434:D *1301:A2 7.5959e-06
5 *1434:D *1301:B1 2.07013e-05
6 *1434:D *1433:D 0.000995103
7 *1434:D *1433:CLK 1.78817e-06
8 *1434:D *214:41 3.97562e-05
*RES
1 *1301:ZN *1434:D 12.536 
*END

*D_NET *52 0.0019005
*CONN
*I *1435:D I *D gf180mcu_fd_sc_mcu7t5v0__dffrnq_1
*I *1306:ZN O *D gf180mcu_fd_sc_mcu7t5v0__oai21_1
*CAP
1 *1435:D 0.000252323
2 *1306:ZN 0.000252323
3 *1435:D *353:I 8.94086e-06
4 *1435:D *404:I 0.000123915
5 *1435:D *1306:A1 0.00100102
6 *1435:D *269:65 0.000253041
7 *1435:D *289:14 8.94086e-06
*RES
1 *1306:ZN *1435:D 21.224 
*END

*D_NET *53 0.00974015
*CONN
*I *1436:D I *D gf180mcu_fd_sc_mcu7t5v0__dffrnq_1
*I *1310:ZN O *D gf180mcu_fd_sc_mcu7t5v0__oai21_1
*CAP
1 *1436:D 0.000860748
2 *1310:ZN 0.000860748
3 *1436:D *1304:A1 2.47495e-05
4 *1436:D *1310:A2 0.000376096
5 *1436:D *1310:B 6.46588e-06
6 *1436:D *1446:D 0.000737636
7 *1436:D *1447:D 3.4596e-05
8 *1436:D *1459:SETN 2.46957e-05
9 *1436:D *1494:I 3.4596e-05
10 *1436:D *219:10 9.96253e-05
11 *1436:D *219:12 0.000330762
12 *1436:D *219:18 0.00254798
13 *1436:D *241:62 0.00272896
14 *1436:D *263:10 0.000223586
15 *1436:D *264:8 0.000494058
16 *1436:D *269:10 4.85042e-05
17 *1436:D *340:18 0.000306346
*RES
1 *1310:ZN *1436:D 32.56 
*END

*D_NET *54 0.00442114
*CONN
*I *1437:D I *D gf180mcu_fd_sc_mcu7t5v0__dffrnq_1
*I *1315:ZN O *D gf180mcu_fd_sc_mcu7t5v0__oai21_1
*CAP
1 *1437:D 0.00064495
2 *1315:ZN 0.00064495
3 *1437:D *1327:A2 0
4 *1437:D *1328:B 0.000152336
5 *1437:D *1436:RN 2.56656e-05
6 *1437:D *1468:I 0.00017298
7 *1437:D *1592:I 0.0011505
8 *1437:D *241:62 1.51173e-05
9 *1437:D *269:65 1.71326e-05
10 *1437:D *277:63 0.00121519
11 *1437:D *328:43 0.000382314
*RES
1 *1315:ZN *1437:D 24.968 
*END

*D_NET *55 0.0057538
*CONN
*I *1438:D I *D gf180mcu_fd_sc_mcu7t5v0__dffrnq_1
*I *1320:ZN O *D gf180mcu_fd_sc_mcu7t5v0__oai21_1
*CAP
1 *1438:D 0.000826622
2 *1320:ZN 0.000826622
3 *1438:D *1318:A2 0.000195531
4 *1438:D *1320:B 0.000956133
5 *1438:D *1322:B 0.000389367
6 *1438:D *1324:A2 3.65141e-05
7 *1438:D *1359:B 0.000323256
8 *1438:D *1359:C 0.000160298
9 *1438:D *1437:RN 7.54457e-05
10 *1438:D *1438:CLK 4.07478e-05
11 *1438:D *1496:I 4.38054e-05
12 *1438:D *1563:I 0.000355857
13 *1438:D *144:25 0.000322603
14 *1438:D *333:16 0.000592063
15 *1438:D *333:22 0.000608934
16 *1438:D *334:24 0
*RES
1 *1320:ZN *1438:D 27.984 
*END

*D_NET *56 0.00424786
*CONN
*I *1439:D I *D gf180mcu_fd_sc_mcu7t5v0__dffrnq_1
*I *1324:ZN O *D gf180mcu_fd_sc_mcu7t5v0__oai21_1
*CAP
1 *1439:D 0.000646411
2 *1324:ZN 0.000646411
3 *1439:D *423:I 2.47364e-05
4 *1439:D *1320:B 0
5 *1439:D *1324:B 8.08115e-05
6 *1439:D *1328:A2 0.000488468
7 *1439:D *1328:B 4.79893e-05
8 *1439:D *1438:CLK 6.15997e-06
9 *1439:D *1496:I 0.00109879
10 *1439:D *208:135 0
11 *1439:D *241:88 0.0001456
12 *1439:D *334:24 0.00106249
*RES
1 *1324:ZN *1439:D 25.8 
*END

*D_NET *57 0.000604426
*CONN
*I *1440:D I *D gf180mcu_fd_sc_mcu7t5v0__dffrnq_1
*I *1328:ZN O *D gf180mcu_fd_sc_mcu7t5v0__oai21_1
*CAP
1 *1440:D 0.000219034
2 *1328:ZN 0.000219034
3 *1440:D *1328:A1 0.000158763
4 *1440:D *1328:A2 7.5959e-06
5 *1440:D *1440:CLK 0
*RES
1 *1328:ZN *1440:D 10.664 
*END

*D_NET *58 0.00516354
*CONN
*I *1441:D I *D gf180mcu_fd_sc_mcu7t5v0__dffrnq_1
*I *1332:ZN O *D gf180mcu_fd_sc_mcu7t5v0__oai21_1
*CAP
1 *1441:D 0.000877507
2 *1332:ZN 0.000877507
3 *1441:D *355:I 3.57634e-06
4 *1441:D *450:I 0.000123502
5 *1441:D *1332:A2 1.12327e-05
6 *1441:D *1390:S 0.00267641
7 *1441:D *1441:RN 3.82619e-05
8 *1441:D *1441:CLK 2.81522e-06
9 *1441:D *1557:I 5.75518e-05
10 *1441:D *172:20 4.6392e-05
11 *1441:D *191:20 1.40331e-05
12 *1441:D *270:37 0.000345937
13 *1441:D *298:106 2.7239e-05
14 *1441:D *336:16 6.15739e-05
*RES
1 *1332:ZN *1441:D 27.256 
*END

*D_NET *59 0.0023554
*CONN
*I *1442:D I *D gf180mcu_fd_sc_mcu7t5v0__dffrnq_1
*I *1335:ZN O *D gf180mcu_fd_sc_mcu7t5v0__oai21_1
*CAP
1 *1442:D 0.000617182
2 *1335:ZN 0.000617182
3 *1442:D *1335:A1 0.000109233
4 *1442:D *1335:B 2.11603e-06
5 *1442:D *1425:D 0.000569975
6 *1442:D *1444:RN 8.32653e-06
7 *1442:D *1532:I 0.000260275
8 *1442:D *284:24 2.52541e-05
9 *1442:D *298:106 9.05956e-05
10 *1442:D *337:43 5.52588e-05
*RES
1 *1335:ZN *1442:D 14.096 
*END

*D_NET *60 0.00176692
*CONN
*I *1443:D I *D gf180mcu_fd_sc_mcu7t5v0__dffrnq_1
*I *1340:ZN O *D gf180mcu_fd_sc_mcu7t5v0__oai21_1
*CAP
1 *1443:D 0.000452373
2 *1340:ZN 0.000452373
3 *1443:D *350:I 1.23748e-05
4 *1443:D *1443:CLK 7.6161e-06
5 *1443:D *248:89 5.10175e-05
6 *1443:D *276:192 0.000225871
7 *1443:D *298:106 0.000170848
8 *1443:D *338:28 0.000394448
*RES
1 *1340:ZN *1443:D 21.952 
*END

*D_NET *61 0.00334541
*CONN
*I *1444:D I *D gf180mcu_fd_sc_mcu7t5v0__dffrnq_1
*I *1344:ZN O *D gf180mcu_fd_sc_mcu7t5v0__oai21_1
*CAP
1 *1444:D 0.000355726
2 *1344:ZN 0.000355726
3 *1444:D *412:I 2.45541e-05
4 *1444:D *1342:B 0
5 *1444:D *1343:A2 0.000422487
6 *1444:D *1344:A1 9.67916e-05
7 *1444:D *1344:A2 0.000184473
8 *1444:D *1344:B 0.00130908
9 *1444:D *1444:CLK 7.5959e-06
10 *1444:D *1502:I 0.000185295
11 *1444:D *272:63 0.000403681
*RES
1 *1344:ZN *1444:D 32.096 
*END

*D_NET *62 0.0115824
*CONN
*I *1445:D I *D gf180mcu_fd_sc_mcu7t5v0__dffrnq_1
*I *1348:ZN O *D gf180mcu_fd_sc_mcu7t5v0__oai21_1
*CAP
1 *1445:D 0.00120818
2 *1348:ZN 0.00120818
3 *1445:D *1260:I 0.00011488
4 *1445:D *1291:A1 5.28551e-05
5 *1445:D *1310:A1 9.423e-05
6 *1445:D *1310:A2 0.000251178
7 *1445:D *1310:B 0.00119695
8 *1445:D *1348:A2 3.53326e-05
9 *1445:D *1351:A2 0.000271568
10 *1445:D *1400:A1 0.00017298
11 *1445:D *1427:D 0.00066588
12 *1445:D *1445:CLK 0.000798161
13 *1445:D *1459:SETN 0.000244007
14 *1445:D *1486:I 6.12766e-05
15 *1445:D *219:18 0.000533063
16 *1445:D *269:29 0.000510584
17 *1445:D *276:46 1.45511e-05
18 *1445:D *276:77 9.0821e-05
19 *1445:D *276:91 1.07369e-05
20 *1445:D *296:61 0.00286678
21 samp_bot *1445:D 0.00118025
*RES
1 *1348:ZN *1445:D 35.888 
*END

*D_NET *63 0.00834864
*CONN
*I *1446:D I *D gf180mcu_fd_sc_mcu7t5v0__dffrnq_1
*I *1351:ZN O *D gf180mcu_fd_sc_mcu7t5v0__oai21_1
*CAP
1 *1446:D 0.00139021
2 *1351:ZN 0.00139021
3 *1446:D *1262:I 6.50665e-06
4 *1446:D *1304:A1 1.08085e-05
5 *1446:D *1354:B 0.00017712
6 *1446:D *1357:B 1.22861e-05
7 *1446:D *1445:RN 0.000180228
8 *1446:D *1447:D 0.00310909
9 *1446:D *1448:CLK 5.96962e-05
10 *1446:D *1537:I 0.000180228
11 *1446:D *229:22 4.18042e-05
12 *1446:D *239:41 0
13 *1446:D *241:31 0.000118716
14 *1446:D *241:62 0.000621886
15 *1446:D *281:35 0.000122244
16 *1446:D *281:43 0.000189974
17 *1436:D *1446:D 0.000737636
*RES
1 *1351:ZN *1446:D 41.976 
*END

*D_NET *64 0.00697508
*CONN
*I *1447:D I *D gf180mcu_fd_sc_mcu7t5v0__dffrnq_1
*I *1354:ZN O *D gf180mcu_fd_sc_mcu7t5v0__oai21_1
*CAP
1 *1447:D 0.000862981
2 *1354:ZN 0.000862981
3 *1447:D *1262:I 0.000321077
4 *1447:D *1304:A1 0.000357684
5 *1447:D *1354:B 6.82106e-06
6 *1447:D *1398:I1 0.000190714
7 *1447:D *1459:CLK 0.000522341
8 *1447:D *171:24 0.000127257
9 *1447:D *263:10 0.000315966
10 *1447:D *296:69 1.37804e-05
11 *1447:D *340:18 0.000249794
12 *1436:D *1447:D 3.4596e-05
13 *1446:D *1447:D 0.00310909
*RES
1 *1354:ZN *1447:D 29.44 
*END

*D_NET *65 0.000876887
*CONN
*I *1448:D I *D gf180mcu_fd_sc_mcu7t5v0__dffrnq_1
*I *1357:ZN O *D gf180mcu_fd_sc_mcu7t5v0__oai21_1
*CAP
1 *1448:D 0.000154214
2 *1357:ZN 0.000154214
3 *1448:D *1357:A1 1.56603e-05
4 *1448:D *1357:A2 8.24093e-05
5 *1448:D *281:29 0.00047039
*RES
1 *1357:ZN *1448:D 10.664 
*END

*D_NET *66 0.000710478
*CONN
*I *1449:D I *D gf180mcu_fd_sc_mcu7t5v0__dffrnq_1
*I *1360:ZN O *D gf180mcu_fd_sc_mcu7t5v0__oai21_1
*CAP
1 *1449:D 0.000134702
2 *1360:ZN 0.000134702
3 *1449:D *175:16 0.000140591
4 dac_p[4] *1449:D 0.000300483
*RES
1 *1360:ZN *1449:D 10.456 
*END

*D_NET *67 0.00496711
*CONN
*I *1450:D I *D gf180mcu_fd_sc_mcu7t5v0__dffrnq_1
*I *1363:ZN O *D gf180mcu_fd_sc_mcu7t5v0__oai21_1
*CAP
1 *1450:D 0.000603823
2 *1363:ZN 0.000603823
3 *1450:D *447:I 0.000188231
4 *1450:D *1363:A1 0.000847471
5 *1450:D *1503:I 0.000720673
6 *1450:D *122:20 0.000927249
7 *1450:D *296:34 0.000228047
8 *1450:D *296:46 0.000346558
9 *1450:D *297:26 1.02967e-05
10 dac_p[1] *1450:D 0.000210182
11 dac_p[5] *1450:D 0.000280755
*RES
1 *1363:ZN *1450:D 27.152 
*END

*D_NET *68 0.000654806
*CONN
*I *1451:D I *D gf180mcu_fd_sc_mcu7t5v0__dffrnq_1
*I *1366:ZN O *D gf180mcu_fd_sc_mcu7t5v0__oai21_1
*CAP
1 *1451:D 7.67738e-05
2 *1366:ZN 7.67738e-05
3 *1451:D *349:I 0.00014779
4 *1451:D *1564:I 2.1846e-05
5 *1451:D *273:61 0.000331622
*RES
1 *1366:ZN *1451:D 10.144 
*END

*D_NET *69 0.00391858
*CONN
*I *1452:D I *D gf180mcu_fd_sc_mcu7t5v0__dffrnq_1
*I *1369:ZN O *D gf180mcu_fd_sc_mcu7t5v0__oai21_1
*CAP
1 *1452:D 0.00101423
2 *1369:ZN 0.00101423
3 *1452:D *1290:A2 0
4 *1452:D *1345:A1 6.9185e-06
5 *1452:D *1369:A1 1.36655e-05
6 *1452:D *1374:B2 4.82568e-05
7 *1452:D *1379:A1 0.000633658
8 *1452:D *1453:D 7.08907e-05
9 *1452:D *1503:I 0.000113457
10 *1452:D *1571:I 0
11 *1452:D *105:14 0.000105224
12 *1452:D *165:6 8.35454e-06
13 *1452:D *265:14 2.95946e-05
14 *1452:D *265:38 0.000329119
15 *1452:D *289:134 0.000530973
*RES
1 *1369:ZN *1452:D 17.736 
*END

*D_NET *70 0.00199162
*CONN
*I *1453:D I *D gf180mcu_fd_sc_mcu7t5v0__dffrnq_1
*I *1372:ZN O *D gf180mcu_fd_sc_mcu7t5v0__oai21_1
*CAP
1 *1453:D 0.000330944
2 *1372:ZN 0.000330944
3 *1453:D *1287:A1 0.000642636
4 *1453:D *1369:A1 3.4596e-05
5 *1453:D *1379:A1 4.64846e-05
6 *1453:D *122:20 6.53324e-05
7 *1453:D *280:52 0.000247057
8 *1453:D *280:72 0.000222736
9 *1452:D *1453:D 7.08907e-05
*RES
1 *1372:ZN *1453:D 21.432 
*END

*D_NET *71 0.00230782
*CONN
*I *1454:D I *D gf180mcu_fd_sc_mcu7t5v0__dffrnq_1
*I *1374:ZN O *D gf180mcu_fd_sc_mcu7t5v0__aoi22_1
*CAP
1 *1454:D 0.000574054
2 *1374:ZN 0.000574054
3 *1454:D *1363:A1 0.000424592
4 *1454:D *1379:A1 0.00026012
5 *1454:D *122:20 1.28816e-05
6 *1454:D *265:38 0.000161322
7 *1454:D *296:34 0.000300797
*RES
1 *1374:ZN *1454:D 14.824 
*END

*D_NET *72 0.00158174
*CONN
*I *1455:D I *D gf180mcu_fd_sc_mcu7t5v0__dffrnq_1
*I *1377:ZN O *D gf180mcu_fd_sc_mcu7t5v0__nor3_1
*CAP
1 *1455:D 0.000436362
2 *1377:ZN 0.000436362
3 *1455:D *1290:A1 5.83625e-05
4 *1455:D *1369:A2 0.000126574
5 *1455:D *1376:A1 0.000392096
6 *1455:D *1377:A3 9.5197e-06
7 *1455:D *1499:I 7.48857e-05
8 *1455:D *224:19 7.16641e-06
9 *1455:D *248:65 4.04148e-05
*RES
1 *1377:ZN *1455:D 21.328 
*END

*D_NET *73 0.00563406
*CONN
*I *1456:D I *D gf180mcu_fd_sc_mcu7t5v0__dffrnq_1
*I *1379:ZN O *D gf180mcu_fd_sc_mcu7t5v0__nor3_1
*CAP
1 *1456:D 0.000770981
2 *1379:ZN 0.000770981
3 *1456:D *391:I 5.06345e-05
4 *1456:D *1351:B 0.00151028
5 *1456:D *1357:A2 0.000137132
6 *1456:D *1426:D 1.87108e-05
7 *1456:D *1426:CLK 3.4596e-05
8 *1456:D *1574:I 0
9 *1456:D *94:16 0.0015059
10 *1456:D *109:24 0
11 *1456:D *241:6 0.000285252
12 *1456:D *281:29 0.00035962
13 dac_p[2] *1456:D 0.000189975
*RES
1 *1379:ZN *1456:D 27.048 
*END

*D_NET *74 0.0080566
*CONN
*I *1457:D I *D gf180mcu_fd_sc_mcu7t5v0__dffsnq_1
*I *1382:ZN O *D gf180mcu_fd_sc_mcu7t5v0__nor2_1
*CAP
1 *1457:D 0.000723566
2 *1382:ZN 0.000723566
3 *1457:D *1382:A2 0.00255315
4 *1457:D *1458:RN 0.000230946
5 *1457:D *1458:CLK 0.0001475
6 *1457:D *1460:RN 0.000692314
7 *1457:D *1569:I 3.646e-05
8 *1457:D *1570:I 0.000120912
9 cmp_rst *1457:D 0.00012521
10 dac_n[6] *1457:D 0.000491581
11 dac_n[7] *1457:D 0.00157248
12 dac_n[9] *1457:D 8.78195e-05
13 *4:30 *1457:D 0.000551101
*RES
1 *1382:ZN *1457:D 31.832 
*END

*D_NET *75 0.00385186
*CONN
*I *1458:D I *D gf180mcu_fd_sc_mcu7t5v0__dffrnq_1
*I *1384:ZN O *D gf180mcu_fd_sc_mcu7t5v0__oai21_1
*CAP
1 *1458:D 0.000522642
2 *1384:ZN 0.000522642
3 *1458:D *1381:A2 0.000125898
4 *1458:D *1381:A3 0.000733283
5 *1458:D *1382:A2 3.17517e-06
6 *1458:D *1396:A2 2.19671e-06
7 *1458:D *1567:I 0.000872157
8 *1458:D *100:16 3.326e-05
9 *1458:D *126:28 3.646e-05
10 *1458:D *296:10 0.000123923
11 *1458:D *296:116 5.06107e-05
12 *1458:D *298:76 4.58667e-05
13 dac_n[7] *1458:D 0.000115982
14 dac_n[8] *1458:D 0.000663763
*RES
1 *1384:ZN *1458:D 25.384 
*END

*D_NET *76 0.000788907
*CONN
*I *1416:D I *D gf180mcu_fd_sc_mcu7t5v0__dffrnq_1
*I *1385:Z O *D gf180mcu_fd_sc_mcu7t5v0__mux2_2
*CAP
1 *1416:D 0.000147304
2 *1385:Z 0.000147304
3 *1416:D *1385:I1 0.000419265
4 *1416:D *241:62 6.18147e-05
5 *1416:D *269:65 1.32185e-05
*RES
1 *1385:Z *1416:D 10.664 
*END

*D_NET *77 0.000781732
*CONN
*I *1417:D I *D gf180mcu_fd_sc_mcu7t5v0__dffrnq_1
*I *1386:Z O *D gf180mcu_fd_sc_mcu7t5v0__mux2_2
*CAP
1 *1417:D 0.000117998
2 *1386:Z 0.000117998
3 *1417:D *1303:B 0.000151067
4 *1417:D *1306:A1 0.000394668
*RES
1 *1386:Z *1417:D 10.456 
*END

*D_NET *78 0.000896372
*CONN
*I *1418:D I *D gf180mcu_fd_sc_mcu7t5v0__dffrnq_1
*I *1387:Z O *D gf180mcu_fd_sc_mcu7t5v0__mux2_2
*CAP
1 *1418:D 1.96933e-05
2 *1387:Z 1.96933e-05
3 *1418:D *1496:I 0.000428493
4 *1418:D *191:20 0.000428493
*RES
1 *1387:Z *1418:D 10.144 
*END

*D_NET *79 0.00204053
*CONN
*I *1419:D I *D gf180mcu_fd_sc_mcu7t5v0__dffrnq_1
*I *1388:Z O *D gf180mcu_fd_sc_mcu7t5v0__mux2_2
*CAP
1 *1419:D 0.00068144
2 *1388:Z 0.00068144
3 *1419:D *1420:D 0.000123158
4 *1419:D *1438:RN 2.08074e-05
5 *1419:D *191:20 0
6 *1419:D *274:159 0.000114271
7 *1419:D *333:14 0.000419418
*RES
1 *1388:Z *1419:D 14.72 
*END

*D_NET *80 0.00252558
*CONN
*I *1420:D I *D gf180mcu_fd_sc_mcu7t5v0__dffrnq_1
*I *1389:Z O *D gf180mcu_fd_sc_mcu7t5v0__mux2_2
*CAP
1 *1420:D 0.00067576
2 *1389:Z 0.00067576
3 *1420:D *1323:A1 0.000222966
4 *1420:D *1438:RN 5.93021e-05
5 *1420:D *274:159 0.00061371
6 *1420:D *317:24 4.008e-05
7 *1420:D *334:14 0.000114849
8 *1419:D *1420:D 0.000123158
*RES
1 *1389:Z *1420:D 15.344 
*END

*D_NET *81 0.00561917
*CONN
*I *1421:D I *D gf180mcu_fd_sc_mcu7t5v0__dffrnq_1
*I *1390:Z O *D gf180mcu_fd_sc_mcu7t5v0__mux2_2
*CAP
1 *1421:D 0.00107168
2 *1390:Z 0.00107168
3 *1421:D *397:I 0.000299013
4 *1421:D *441:I 0.000313157
5 *1421:D *1390:I0 0.00243946
6 *1421:D *1390:S 0.000105965
7 *1421:D *1441:CLK 5.1403e-05
8 *1421:D *191:20 5.6979e-06
9 *1421:D *191:34 0.000171821
10 *1421:D *322:16 4.01681e-05
11 *1421:D *327:53 4.91246e-05
*RES
1 *1390:Z *1421:D 28.192 
*END

*D_NET *82 0.00376221
*CONN
*I *1422:D I *D gf180mcu_fd_sc_mcu7t5v0__dffrnq_1
*I *1391:Z O *D gf180mcu_fd_sc_mcu7t5v0__mux2_2
*CAP
1 *1422:D 0.00118821
2 *1391:Z 0.00118821
3 *1422:D *355:I 8.91112e-05
4 *1422:D *441:I 6.6107e-06
5 *1422:D *1335:A2 5.02018e-05
6 *1422:D *1391:I0 3.09073e-06
7 *1422:D *1441:CLK 0.000113027
8 *1422:D *1473:I 0.000201995
9 *1422:D *1530:I 2.36492e-05
10 *1422:D *1531:I 8.43164e-06
11 *1422:D *1558:I 0.00029082
12 *1422:D *208:249 0.000254881
13 *1422:D *274:155 7.10063e-05
14 *1422:D *284:12 1.25508e-05
15 *1422:D *298:106 5.5802e-05
16 *1422:D *318:10 0.000204606
*RES
1 *1391:Z *1422:D 26.632 
*END

*D_NET *83 0.0028829
*CONN
*I *1423:D I *D gf180mcu_fd_sc_mcu7t5v0__dffrnq_1
*I *1392:Z O *D gf180mcu_fd_sc_mcu7t5v0__mux2_2
*CAP
1 *1423:D 8.6583e-05
2 *1392:Z 8.6583e-05
3 *1423:D *350:I 0.00135487
4 *1423:D *1392:I0 0.00135487
*RES
1 *1392:Z *1423:D 21.64 
*END

*D_NET *84 0.0016353
*CONN
*I *1424:D I *D gf180mcu_fd_sc_mcu7t5v0__dffrnq_1
*I *1393:Z O *D gf180mcu_fd_sc_mcu7t5v0__mux2_2
*CAP
1 *1424:D 0.000615969
2 *1393:Z 0.000615969
3 *1424:D *1393:I1 0.000401138
4 *1424:D *1393:S 2.22784e-06
5 *1424:D *1474:I 0
6 *1424:D *1560:I 0
*RES
1 *1393:Z *1424:D 31.68 
*END

*D_NET *85 0.00536833
*CONN
*I *1425:D I *D gf180mcu_fd_sc_mcu7t5v0__dffrnq_1
*I *1394:Z O *D gf180mcu_fd_sc_mcu7t5v0__mux2_2
*CAP
1 *1425:D 0.00105606
2 *1394:Z 0.00105606
3 *1425:D *451:I 1.5727e-06
4 *1425:D *1392:I0 3.17907e-05
5 *1425:D *1514:I 6.51925e-06
6 *1425:D *248:89 0.000430705
7 *1425:D *284:24 0.000105493
8 *1425:D *284:31 0
9 *1425:D *298:106 0.00147369
10 *1425:D *322:16 5.92453e-06
11 *1425:D *337:29 4.91607e-05
12 *1425:D *338:28 0.00058138
13 *1442:D *1425:D 0.000569975
*RES
1 *1394:Z *1425:D 28.192 
*END

*D_NET *86 0.0197576
*CONN
*I *1426:D I *D gf180mcu_fd_sc_mcu7t5v0__dffrnq_1
*I *1396:ZN O *D gf180mcu_fd_sc_mcu7t5v0__nor2_1
*CAP
1 *1426:D 0.00173011
2 *1396:ZN 0.00388339
3 *86:16 0.0056135
4 *1426:D *391:I 0
5 *1426:D *1262:I 5.57504e-05
6 *1426:D *1360:B 0.000179238
7 *1426:D *1361:A1 1.25118e-05
8 *1426:D *1374:B1 9.23759e-05
9 *1426:D *1426:CLK 5.80465e-05
10 *1426:D *1448:RN 5.10196e-05
11 *1426:D *1449:RN 4.67771e-06
12 *1426:D *1459:CLK 2.72796e-06
13 *1426:D *1573:I 4.35871e-05
14 *1426:D *1575:I 0.000512399
15 *1426:D *175:16 0.00021115
16 *1426:D *209:6 2.04597e-06
17 *1426:D *243:8 5.18939e-05
18 *1426:D *244:39 9.96089e-05
19 *86:16 *1259:I 0.000420289
20 *86:16 *1271:A2 0.000451419
21 *86:16 *1396:A2 6.12849e-05
22 *86:16 *1567:I 1.60428e-05
23 *86:16 *1570:I 0
24 *86:16 *120:12 0
25 *86:16 *120:67 8.31473e-05
26 *86:16 *177:22 0.000422171
27 *86:16 *206:43 0.000141863
28 *86:16 *210:17 2.1994e-05
29 *86:16 *210:23 0.000123153
30 *86:16 *273:61 5.99626e-07
31 *86:16 *280:48 0.000772255
32 *86:16 *296:34 0.00272725
33 *86:16 *298:76 0
34 *86:16 *341:14 0.000512282
35 dac_p[2] *1426:D 0.00138107
36 *1456:D *1426:D 1.87108e-05
37 *47:8 *1426:D 0
*RES
1 *1396:ZN *86:16 47.016 
2 *86:16 *1426:D 22.312 
*END

*D_NET *87 0.00650048
*CONN
*I *1427:D I *D gf180mcu_fd_sc_mcu7t5v0__dffsnq_1
*I *1398:Z O *D gf180mcu_fd_sc_mcu7t5v0__mux2_2
*CAP
1 *1427:D 0.00086038
2 *1398:Z 0.00086038
3 *1427:D *1398:I1 0.000126406
4 *1427:D *1398:S 0
5 *1427:D *1400:A1 4.70154e-05
6 *1427:D *1459:SETN 0.000248378
7 *1427:D *1467:CLK 0.00118176
8 *1427:D *1486:I 3.22108e-05
9 *1427:D *109:24 0.00100018
10 *1427:D *276:46 0.000962127
11 *1427:D *276:91 2.79125e-05
12 *1427:D *290:151 2.14739e-05
13 *1427:D *308:18 0.000466372
14 *1445:D *1427:D 0.00066588
*RES
1 *1398:Z *1427:D 28.712 
*END

*D_NET *88 0.00249514
*CONN
*I *1428:D I *D gf180mcu_fd_sc_mcu7t5v0__dffrnq_1
*I *1400:ZN O *D gf180mcu_fd_sc_mcu7t5v0__oai32_4
*CAP
1 *1428:D 0.000238332
2 *1400:ZN 0.000238332
3 *1428:D *1357:B 5.45868e-05
4 *1428:D *1400:A2 0.000249046
5 *1428:D *1401:A2 6.56211e-06
6 *1428:D *1428:CLK 2.95866e-05
7 *1428:D *276:46 0.00101931
8 *1428:D *308:18 0.000410339
9 *1428:D *340:37 0.000249046
*RES
1 *1400:ZN *1428:D 31.264 
*END

*D_NET *89 0.00504117
*CONN
*I *1429:D I *D gf180mcu_fd_sc_mcu7t5v0__dffrnq_2
*I *1404:ZN O *D gf180mcu_fd_sc_mcu7t5v0__oai21_1
*CAP
1 *1429:D 0.000666905
2 *1404:ZN 0.000666905
3 *1429:D *1366:A2 0.000342563
4 *1429:D *1404:A2 0.00242678
5 *1429:D *1510:I 0.000131492
6 *1429:D *1548:I 2.46831e-05
7 *1429:D *97:14 0.000262189
8 *1429:D *208:19 0.000126016
9 *1429:D *276:46 0.000393644
*RES
1 *1404:ZN *1429:D 26.216 
*END

*D_NET *90 0.00424401
*CONN
*I *1430:D I *D gf180mcu_fd_sc_mcu7t5v0__dffsnq_1
*I *1406:Z O *D gf180mcu_fd_sc_mcu7t5v0__and2_1
*CAP
1 *1430:D 0.000912643
2 *1406:Z 0.000912643
3 *1430:D *400:I 0.000389703
4 *1430:D *1406:A2 2.27998e-05
5 *1430:D *1430:CLK 0
6 *1430:D *1509:I 3.4596e-05
7 *1430:D *1511:I 0.000217349
8 *1430:D *96:14 1.43827e-05
9 *1430:D *97:14 0.000585139
10 *1430:D *108:27 0.00106678
11 *1430:D *172:20 7.3735e-05
12 *1430:D *302:10 1.42315e-05
*RES
1 *1406:Z *1430:D 26.944 
*END

*D_NET *91 0.00157444
*CONN
*I *1431:D I *D gf180mcu_fd_sc_mcu7t5v0__dffrnq_1
*I *1409:ZN O *D gf180mcu_fd_sc_mcu7t5v0__oai22_1
*CAP
1 *1431:D 0.000425921
2 *1409:ZN 0.000425921
3 *1431:D *377:I 3.57634e-06
4 *1431:D *99:12 5.11614e-05
5 *1431:D *99:14 0.000193044
6 *1431:D *99:16 1.13999e-05
7 *1431:D *121:24 0.000141026
8 *1431:D *310:16 0.000322394
*RES
1 *1409:ZN *1431:D 21.432 
*END

*D_NET *92 0.0029631
*CONN
*I *1432:D I *D gf180mcu_fd_sc_mcu7t5v0__dffrnq_1
*I *1413:ZN O *D gf180mcu_fd_sc_mcu7t5v0__oai22_1
*CAP
1 *1432:D 0.000566609
2 *1413:ZN 0.000566609
3 *1432:D *415:I 9.08592e-05
4 *1432:D *1297:A1 7.55263e-05
5 *1432:D *1415:A2 0.000337163
6 *1432:D *123:65 5.4546e-05
7 *1432:D *296:116 0.000111928
8 *1432:D *310:16 0.000337163
9 *1460:D *1432:D 0.0008227
*RES
1 *1413:ZN *1432:D 32.304 
*END

*D_NET *93 0.00567681
*CONN
*I *1433:D I *D gf180mcu_fd_sc_mcu7t5v0__dffrnq_1
*I *1415:ZN O *D gf180mcu_fd_sc_mcu7t5v0__aoi21_1
*CAP
1 *1433:D 0.000886977
2 *1415:ZN 0.000886977
3 *1433:D *1274:A1 0.000256509
4 *1433:D *1299:B 6.61468e-06
5 *1433:D *1301:A2 0.00035659
6 *1433:D *1375:A3 0.00143724
7 *1433:D *1415:A2 0.000459979
8 *1433:D *1415:B 8.88809e-05
9 *1433:D *1432:RN 7.81176e-05
10 *1433:D *1433:CLK 2.61754e-05
11 *1434:D *1433:D 0.000995103
12 *1460:D *1433:D 0.000197651
*RES
1 *1415:ZN *1433:D 18.88 
*END

*D_NET *94 0.0265561
*CONN
*I *1341:A1 I *D gf180mcu_fd_sc_mcu7t5v0__nor4_4
*I *1325:A1 I *D gf180mcu_fd_sc_mcu7t5v0__nor4_4
*I *1312:A1 I *D gf180mcu_fd_sc_mcu7t5v0__and3_1
*I *1399:A1 I *D gf180mcu_fd_sc_mcu7t5v0__oai22_4
*I *1398:S I *D gf180mcu_fd_sc_mcu7t5v0__mux2_2
*I *1246:ZN O *D gf180mcu_fd_sc_mcu7t5v0__inv_2
*CAP
1 *1341:A1 0.00010135
2 *1325:A1 0.000376099
3 *1312:A1 0.000299328
4 *1399:A1 4.34759e-05
5 *1398:S 0.00146678
6 *1246:ZN 0.00142614
7 *94:54 0.00131224
8 *94:37 0.00174489
9 *94:16 0.00385616
10 *1312:A1 *1328:B 1.27149e-05
11 *1312:A1 *1356:C 1.36673e-05
12 *1312:A1 *230:39 0.000157339
13 *1312:A1 *268:25 2.68386e-05
14 *1325:A1 *368:I 0
15 *1325:A1 *1544:I 0.00109665
16 *1325:A1 *230:39 4.7393e-05
17 *1325:A1 *243:67 0.00095263
18 *1325:A1 *268:25 1.3406e-05
19 *1341:A1 *1544:I 3.41129e-05
20 *1341:A1 *268:25 0.000396217
21 *1341:A1 *290:40 1.37801e-05
22 *1398:S *1350:A2 0
23 *1398:S *1398:I0 3.94467e-05
24 *1398:S *1398:I1 9.03418e-05
25 *1398:S *1445:RN 0
26 *1398:S *1467:D 7.75437e-05
27 *1398:S *1486:I 2.25929e-05
28 *1398:S *240:23 0
29 *1398:S *269:29 0.000353272
30 *1398:S *340:18 3.22108e-05
31 *1399:A1 *1400:A3 0.000182219
32 *1399:A1 *240:23 2.2e-05
33 *1399:A1 *291:79 1.71326e-05
34 *94:16 *1246:I 4.40813e-05
35 *94:16 *1351:B 0.000316878
36 *94:16 *1354:B 0.00202156
37 *94:16 *1361:A1 0.000163364
38 *94:16 *1366:B 2.14739e-05
39 *94:16 *1400:A1 0.000155382
40 *94:16 *120:18 0.000236284
41 *94:16 *168:22 0.000937771
42 *94:16 *289:14 7.5748e-05
43 *94:37 *1264:I 0.000550783
44 *94:37 *1400:A1 0
45 *94:37 *1427:SETN 2.77318e-05
46 *94:37 *1428:RN 6.41916e-06
47 *94:37 *1486:I 1.2936e-05
48 *94:37 *216:8 1.96507e-05
49 *94:37 *230:39 0.000808043
50 *94:37 *240:23 0
51 *94:37 *272:59 0.000104576
52 *94:54 *1356:A1 0.000128395
53 *94:54 *1359:B 0.000838833
54 *94:54 *208:107 0.000125499
55 *94:54 *230:39 0.0014416
56 *94:54 *272:59 0.000218529
57 dac_p[2] *94:16 0.00245363
58 dac_p[6] *94:16 0.000113027
59 dac_p[7] *94:16 0
60 *1427:D *1398:S 0
61 *1456:D *94:16 0.0015059
*RES
1 *1246:ZN *94:16 31.388 
2 *94:16 *1398:S 13.34 
3 *94:16 *94:37 11.78 
4 *94:37 *1399:A1 9.52 
5 *94:37 *94:54 12.716 
6 *94:54 *1312:A1 6.684 
7 *94:54 *1325:A1 8.972 
8 *1325:A1 *1341:A1 10.144 
*END

*D_NET *95 0.0132188
*CONN
*I *1311:A2 I *D gf180mcu_fd_sc_mcu7t5v0__nor2_2
*I *1307:A2 I *D gf180mcu_fd_sc_mcu7t5v0__and3_1
*I *1329:A2 I *D gf180mcu_fd_sc_mcu7t5v0__nor4_4
*I *1400:B2 I *D gf180mcu_fd_sc_mcu7t5v0__oai32_4
*I *1247:ZN O *D gf180mcu_fd_sc_mcu7t5v0__inv_2
*CAP
1 *1311:A2 0.000130448
2 *1307:A2 0.000527276
3 *1329:A2 0
4 *1400:B2 0.000820034
5 *1247:ZN 4.32334e-05
6 *95:16 0.00233589
7 *95:8 0.00221681
8 *1307:A2 *1318:A1 8.35223e-05
9 *1307:A2 *1347:B 0.00150858
10 *1307:A2 *1350:B 0.000464409
11 *1307:A2 *1353:B1 8.58618e-05
12 *1307:A2 *1354:B 7.69974e-05
13 *1307:A2 *140:12 0.000637622
14 *1307:A2 *175:16 3.20057e-06
15 *1307:A2 *277:18 0.000469915
16 *1307:A2 *277:27 0.000674576
17 *1307:A2 *289:14 2.20822e-05
18 *1311:A2 *1270:A2 4.26493e-06
19 *1311:A2 *1398:I1 3.4596e-05
20 *1311:A2 *1400:A2 0.000484625
21 *1311:A2 *192:8 6.91919e-05
22 *1311:A2 *230:39 0.000208588
23 *1311:A2 *302:27 0
24 *1400:B2 *1349:A1 0.000406513
25 *1400:B2 *1400:A2 0.00123734
26 *1400:B2 *1572:I 0.000439414
27 *1400:B2 *230:39 0
28 *1400:B2 *280:10 1.51772e-05
29 *1400:B2 *290:129 0
30 *1400:B2 *290:188 0
31 *1400:B2 *291:79 7.80235e-06
32 *95:8 *1350:B 0.000182072
33 *95:8 *1354:B 2.87521e-05
34 *95:16 *230:39 0
*RES
1 *1247:ZN *95:8 9.52 
2 *95:8 *95:16 15.864 
3 *95:16 *1400:B2 15.968 
4 *95:16 *1329:A2 9 
5 *95:8 *1307:A2 16.8 
6 *1400:B2 *1311:A2 19.872 
*END

*D_NET *96 0.0200724
*CONN
*I *1341:A3 I *D gf180mcu_fd_sc_mcu7t5v0__nor4_4
*I *1405:B I *D gf180mcu_fd_sc_mcu7t5v0__oai21_1
*I *1336:A1 I *D gf180mcu_fd_sc_mcu7t5v0__nor2_1
*I *1248:ZN O *D gf180mcu_fd_sc_mcu7t5v0__clkinv_1
*CAP
1 *1341:A3 0.000820053
2 *1405:B 8.73133e-05
3 *1336:A1 0.0008743
4 *1248:ZN 0.00056031
5 *96:14 0.00150544
6 *96:12 0.00192419
7 *1336:A1 *1249:I 0.00168025
8 *1336:A1 *1372:B 0.000203739
9 *1336:A1 *1373:A2 0.00124241
10 *1336:A1 *1379:A1 7.95519e-06
11 *1336:A1 *1404:B 0.000146106
12 *1336:A1 *1511:I 0.00164194
13 *1336:A1 *104:12 0.000179413
14 *1336:A1 *120:67 8.06223e-05
15 *1336:A1 *196:10 0.000190974
16 *1336:A1 *206:43 5.13977e-05
17 *1336:A1 *297:26 1.97285e-06
18 *1341:A3 *1325:A4 0.000256968
19 *1341:A3 *1337:A1 1.36398e-06
20 *1341:A3 *1343:A2 0
21 *1341:A3 *1349:A1 3.61799e-05
22 *1341:A3 *108:43 0.000406972
23 *1341:A3 *118:14 4.27242e-05
24 *1341:A3 *159:12 2.81522e-06
25 *1341:A3 *172:20 0.000572415
26 *1405:B *1405:A1 6.32781e-05
27 *1405:B *208:19 3.69372e-05
28 *1405:B *274:14 5.63044e-06
29 *96:12 *1248:I 0.000489437
30 *96:12 *1521:I 0.000180258
31 *96:12 *1550:I 0.00082903
32 *96:12 *123:45 0.000786771
33 *96:12 *290:188 0.00178908
34 *96:14 *1511:I 0.000547981
35 *96:14 *118:14 0.000272178
36 *96:14 *172:20 0.00224611
37 *96:14 *196:10 0.000293444
38 *1430:D *96:14 1.43827e-05
*RES
1 *1248:ZN *96:12 17.632 
2 *96:12 *96:14 8.008 
3 *96:14 *1336:A1 20.44 
4 *96:14 *1405:B 9.728 
5 *96:12 *1341:A3 14.824 
*END

*D_NET *97 0.013664
*CONN
*I *1329:A4 I *D gf180mcu_fd_sc_mcu7t5v0__nor4_4
*I *1321:A2 I *D gf180mcu_fd_sc_mcu7t5v0__nor2_4
*I *1404:A1 I *D gf180mcu_fd_sc_mcu7t5v0__oai21_1
*I *1337:A2 I *D gf180mcu_fd_sc_mcu7t5v0__and3_1
*I *1325:A4 I *D gf180mcu_fd_sc_mcu7t5v0__nor4_4
*I *1249:ZN O *D gf180mcu_fd_sc_mcu7t5v0__inv_2
*CAP
1 *1329:A4 0.000525087
2 *1321:A2 0.000152617
3 *1404:A1 0
4 *1337:A2 0.000368878
5 *1325:A4 0.000737722
6 *1249:ZN 0.000182545
7 *97:60 0.00102868
8 *97:14 0.00215328
9 *97:8 0.0015802
10 *1321:A2 *1329:A1 6.18147e-05
11 *1321:A2 *208:123 1.78817e-06
12 *1325:A4 *1337:A1 0
13 *1325:A4 *1341:A4 3.7384e-05
14 *1325:A4 *1349:A1 0.000578427
15 *1329:A4 *368:I 4.18157e-05
16 *1329:A4 *1544:I 0.000113027
17 *1329:A4 *208:123 0.000200552
18 *1329:A4 *290:55 1.18566e-05
19 *1329:A4 *290:61 4.40477e-05
20 *1337:A2 *1337:A1 1.84221e-05
21 *1337:A2 *1430:SETN 8.28588e-05
22 *1337:A2 *108:27 0.000131407
23 *1337:A2 *108:43 8.1475e-05
24 *1337:A2 *312:14 1.5994e-05
25 *97:8 *1249:I 0.000454633
26 *97:8 *1404:B 4.40271e-05
27 *97:8 *1510:I 2.14739e-05
28 *97:8 *104:12 8.1598e-06
29 *97:14 *400:I 0.000131258
30 *97:14 *1366:A2 3.29213e-05
31 *97:14 *1404:A2 0.000115388
32 *97:14 *1430:SETN 0.000154019
33 *97:14 *1509:I 0.000297451
34 *97:14 *1510:I 0.000406961
35 *97:14 *1548:I 1.73106e-05
36 *97:14 *108:27 0.000180224
37 *97:14 *302:10 0.000146714
38 *97:14 *302:18 0.0019557
39 *97:60 *1329:A1 2.38773e-05
40 *97:60 *1337:A1 8.02875e-05
41 *97:60 *229:51 6.15781e-05
42 *97:60 *290:61 0.00027784
43 *1341:A3 *1325:A4 0.000256968
44 *1429:D *97:14 0.000262189
45 *1430:D *97:14 0.000585139
*RES
1 *1249:ZN *97:8 6.164 
2 *97:8 *97:14 19.06 
3 *97:14 *1325:A4 13.056 
4 *97:14 *1337:A2 11.496 
5 *97:8 *1404:A1 4.5 
6 *1325:A4 *97:60 7.62 
7 *97:60 *1321:A2 5.436 
8 *97:60 *1329:A4 17.244 
*END

*D_NET *98 0.0102656
*CONN
*I *1276:A1 I *D gf180mcu_fd_sc_mcu7t5v0__nor2_1
*I *1410:A1 I *D gf180mcu_fd_sc_mcu7t5v0__nand4_1
*I *1250:ZN O *D gf180mcu_fd_sc_mcu7t5v0__clkinv_1
*CAP
1 *1276:A1 0.000449196
2 *1410:A1 4.22279e-05
3 *1250:ZN 0.00122407
4 *98:12 0.00171549
5 *1276:A1 *1252:I 0
6 *1276:A1 *1276:A2 6.5186e-05
7 *1276:A1 *1410:A2 9.96253e-05
8 *1276:A1 *1554:I 0.00118772
9 *1276:A1 *111:12 7.22138e-05
10 *1410:A1 *1529:I 0.000103788
11 *98:12 *360:I 0.000454875
12 *98:12 *1250:I 0.00130912
13 *98:12 *1301:B1 0.00199853
14 *98:12 *1529:I 0.000211057
15 *98:12 *1554:I 0.00014262
16 *98:12 *1569:I 0.000158314
17 *98:12 *111:8 0.000130191
18 *98:12 *120:81 0.000100504
19 *98:12 *121:24 9.86431e-05
20 *443:I *1276:A1 9.13609e-05
21 *443:I *98:12 0.000118632
22 *1541:I *98:12 0.000223391
23 *4:30 *1276:A1 0.000268906
*RES
1 *1250:ZN *98:12 27.852 
2 *98:12 *1410:A1 4.812 
3 *98:12 *1276:A1 18.804 
*END

*D_NET *99 0.0130865
*CONN
*I *1279:A1 I *D gf180mcu_fd_sc_mcu7t5v0__nor2_1
*I *1414:A1 I *D gf180mcu_fd_sc_mcu7t5v0__or4_1
*I *1408:B I *D gf180mcu_fd_sc_mcu7t5v0__oai31_1
*I *1409:A1 I *D gf180mcu_fd_sc_mcu7t5v0__oai22_1
*I *1275:A1 I *D gf180mcu_fd_sc_mcu7t5v0__nand3_1
*I *1251:ZN O *D gf180mcu_fd_sc_mcu7t5v0__clkinv_1
*CAP
1 *1279:A1 2.42638e-05
2 *1414:A1 0
3 *1408:B 0.000110376
4 *1409:A1 0
5 *1275:A1 0.000885796
6 *1251:ZN 0.00168871
7 *99:44 0.000526721
8 *99:16 0.000903533
9 *99:14 0.000567405
10 *99:12 0.0018463
11 *1275:A1 *1252:I 0.000201002
12 *1275:A1 *1409:B1 0.000237628
13 *1275:A1 *1412:A2 3.63174e-05
14 *1275:A1 *1527:I 0.000193584
15 *1275:A1 *1528:I 0.0001105
16 *1275:A1 *1554:I 0.000536128
17 *1275:A1 *100:58 0.000214712
18 *1275:A1 *100:64 6.35234e-05
19 *1275:A1 *121:24 1.51321e-05
20 *1275:A1 *311:6 0.000194522
21 *1279:A1 *271:8 1.49083e-05
22 *1279:A1 *310:16 0.000112089
23 *1408:B *1375:A3 0.000439875
24 *1408:B *1409:B2 0.000308609
25 *1408:B *296:116 4.46991e-05
26 *99:12 *415:I 3.57095e-05
27 *99:12 *1251:I 0.000993509
28 *99:12 *1274:A1 0.00015425
29 *99:12 *1274:A2 0
30 *99:12 *1277:A3 5.35521e-05
31 *99:12 *1279:A2 6.03278e-05
32 *99:12 *1282:A2 7.16669e-05
33 *99:12 *1352:A1 5.78246e-05
34 *99:12 *1569:I 1.6659e-05
35 *99:12 *121:24 1.68614e-05
36 *99:12 *227:31 0
37 *99:14 *1279:A2 2.76367e-05
38 *99:14 *1412:A2 0.000546615
39 *99:16 *1412:A2 0.000115388
40 *99:16 *121:24 2.02028e-06
41 *99:44 *1299:B 0.000970075
42 *99:44 *1375:A3 0.00015494
43 *99:44 *296:116 0.000189027
44 *1431:D *99:12 5.11614e-05
45 *1431:D *99:14 0.000193044
46 *1431:D *99:16 1.13999e-05
47 *1460:D *99:12 0
48 *4:30 *1275:A1 8.84807e-05
*RES
1 *1251:ZN *99:12 20.336 
2 *99:12 *99:14 1.768 
3 *99:14 *99:16 0.312 
4 *99:16 *1275:A1 16.176 
5 *99:16 *1409:A1 9 
6 *99:14 *99:44 12.328 
7 *99:44 *1408:B 10.352 
8 *99:44 *1414:A1 9 
9 *99:12 *1279:A1 9.312 
*END

*D_NET *100 0.0224453
*CONN
*I *1275:A2 I *D gf180mcu_fd_sc_mcu7t5v0__nand3_1
*I *1410:A3 I *D gf180mcu_fd_sc_mcu7t5v0__nand4_1
*I *1413:A1 I *D gf180mcu_fd_sc_mcu7t5v0__oai22_1
*I *1414:A2 I *D gf180mcu_fd_sc_mcu7t5v0__or4_1
*I *1281:A2 I *D gf180mcu_fd_sc_mcu7t5v0__nand4_1
*I *1280:A2 I *D gf180mcu_fd_sc_mcu7t5v0__nand3_1
*I *1252:ZN O *D gf180mcu_fd_sc_mcu7t5v0__clkinv_1
*CAP
1 *1275:A2 0.000158952
2 *1410:A3 9.33193e-05
3 *1413:A1 0
4 *1414:A2 0.000329877
5 *1281:A2 0
6 *1280:A2 0.000215474
7 *1252:ZN 0.000551663
8 *100:64 0.000709454
9 *100:58 0.000722515
10 *100:54 0.00133112
11 *100:31 0.00165224
12 *100:16 0.00149683
13 *1275:A2 *1527:I 0.000328242
14 *1275:A2 *1528:I 9.35542e-06
15 *1275:A2 *1554:I 0.00043234
16 *1275:A2 *111:28 0.000214356
17 *1280:A2 *1280:A1 0.00128215
18 *1280:A2 *1288:A2 2.11222e-05
19 *1280:A2 *1571:I 0.00118496
20 *1280:A2 *121:24 1.19584e-05
21 *1280:A2 *296:34 8.98956e-05
22 *1410:A3 *1299:A2 5.63044e-06
23 *1410:A3 *1408:A3 0.000702745
24 *1410:A3 *1488:I 0.000771936
25 *1414:A2 *1409:B2 0.000476417
26 *1414:A2 *1413:A2 1.07369e-05
27 *1414:A2 *127:12 0.000160383
28 *1414:A2 *198:26 0.000340824
29 *100:16 *1381:A1 0.000477012
30 *100:16 *1381:A2 0.000564656
31 *100:16 *1382:A2 0.000781044
32 *100:16 *1396:A2 0.00066881
33 *100:16 *1460:RN 1.73223e-05
34 *100:16 *1567:I 1.39235e-05
35 *100:16 *121:24 1.78817e-06
36 *100:16 *296:34 7.91253e-05
37 *100:16 *298:76 8.10026e-05
38 *100:16 *341:14 0.000418773
39 *100:31 *1382:A1 0.000384048
40 *100:31 *1460:CLK 0.000682792
41 *100:31 *1465:RN 2.82354e-05
42 *100:31 *210:17 0.000488331
43 *100:31 *239:97 0.00150416
44 *100:31 *288:26 4.42738e-06
45 *100:31 *288:32 6.9464e-06
46 *100:31 *341:14 9.09594e-05
47 *100:54 *1281:A1 0.00022961
48 *100:54 *1299:A2 0.00018031
49 *100:54 *1382:A1 0.000237084
50 *100:54 *1465:RN 0.000182021
51 *100:54 *1527:I 0.000246509
52 *100:54 *1553:I 0
53 *100:54 *306:8 8.94086e-06
54 *100:54 *341:14 4.88751e-05
55 *100:58 *1299:A2 0.000152285
56 *100:58 *1528:I 0.000247666
57 *100:58 *121:24 9.99902e-05
58 *100:64 *121:24 0.000799888
59 *1275:A1 *100:58 0.000214712
60 *1275:A1 *100:64 6.35234e-05
61 *1458:D *100:16 3.326e-05
62 *1462:D *100:54 2.33885e-05
63 *1464:D *100:54 7.94203e-05
*RES
1 *1252:ZN *100:16 20.78 
2 *100:16 *1280:A2 8.972 
3 *100:16 *100:31 16.488 
4 *100:31 *1281:A2 4.5 
5 *100:31 *100:54 15.968 
6 *100:54 *100:58 7.1 
7 *100:58 *100:64 7.412 
8 *100:64 *1414:A2 7.724 
9 *100:64 *1413:A1 4.5 
10 *100:58 *1410:A3 11.184 
11 *100:54 *1275:A2 6.684 
*END

*D_NET *101 0.0122965
*CONN
*I *1299:B I *D gf180mcu_fd_sc_mcu7t5v0__oai21_1
*I *1301:A1 I *D gf180mcu_fd_sc_mcu7t5v0__aoi22_1
*I *1253:ZN O *D gf180mcu_fd_sc_mcu7t5v0__clkinv_1
*CAP
1 *1299:B 0.00187544
2 *1301:A1 0
3 *1253:ZN 0.000950195
4 *101:16 0.00282564
5 *1299:B *378:I 3.71485e-05
6 *1299:B *415:I 0.000366301
7 *1299:B *1297:A1 1.89858e-05
8 *1299:B *1299:A1 1.60428e-05
9 *1299:B *1301:B1 0.000194144
10 *1299:B *1346:A1 4.28501e-06
11 *1299:B *1415:A2 4.04477e-06
12 *1299:B *1569:I 0.000190103
13 *1299:B *123:65 4.81274e-05
14 *1299:B *166:12 2.11915e-05
15 *1299:B *211:52 0.000251178
16 *1299:B *226:12 6.35703e-05
17 *1299:B *226:27 0.00170676
18 *101:16 *1253:I 4.21929e-05
19 *101:16 *1285:A1 8.11931e-06
20 *101:16 *1285:B 0.000564081
21 *101:16 *1415:A2 6.31514e-06
22 *101:16 *113:6 3.99399e-06
23 *101:16 *170:26 0.000149122
24 *101:16 *226:12 0
25 *101:16 *228:16 0.00100065
26 *101:16 *228:24 0.000166817
27 *101:16 *274:97 5.13977e-05
28 *101:16 *344:8 0.000445794
29 *101:16 *344:27 3.23202e-05
30 *443:I *1299:B 0.000190103
31 *1433:D *1299:B 6.61468e-06
32 *1434:D *1299:B 1.17491e-05
33 *1466:D *1299:B 7.39735e-05
34 *99:44 *1299:B 0.000970075
*RES
1 *1253:ZN *101:16 21.404 
2 *101:16 *1301:A1 4.5 
3 *101:16 *1299:B 36.956 
*END

*D_NET *102 0.00769682
*CONN
*I *1415:A1 I *D gf180mcu_fd_sc_mcu7t5v0__aoi21_1
*I *1254:ZN O *D gf180mcu_fd_sc_mcu7t5v0__clkinv_1
*CAP
1 *1415:A1 0.00131762
2 *1254:ZN 0.00131762
3 *1415:A1 *1251:I 0
4 *1415:A1 *1274:A1 0.000655228
5 *1415:A1 *1277:A3 2.63679e-05
6 *1415:A1 *1278:A1 0.00111609
7 *1415:A1 *1283:A1 0.00013692
8 *1415:A1 *1283:A2 3.3698e-05
9 *1415:A1 *1285:B 0.000177967
10 *1415:A1 *1352:A1 2.50553e-05
11 *1415:A1 *1463:RN 0
12 *1415:A1 *1601:I 0.000689101
13 *1415:A1 *113:6 0.000602561
14 *1415:A1 *113:10 0.000122322
15 *1415:A1 *228:16 0.00126822
16 *1415:A1 *344:8 0.000179364
17 *1415:A1 *344:27 2.86923e-05
*RES
1 *1254:ZN *1415:A1 32.664 
*END

*D_NET *103 0.0074788
*CONN
*I *1278:A2 I *D gf180mcu_fd_sc_mcu7t5v0__nor3_1
*I *1376:A1 I *D gf180mcu_fd_sc_mcu7t5v0__aoi21_1
*I *1255:ZN O *D gf180mcu_fd_sc_mcu7t5v0__clkinv_1
*CAP
1 *1278:A2 0.00057982
2 *1376:A1 0.00115102
3 *1255:ZN 0
4 *103:6 0.00173084
5 *1278:A2 *1273:A1 9.96348e-05
6 *1278:A2 *1278:A1 2.83563e-05
7 *1278:A2 *1296:A1 0.000354997
8 *1278:A2 *1296:A2 9.56992e-06
9 *1278:A2 *1296:A3 2.43814e-05
10 *1278:A2 *1300:A1 3.0561e-06
11 *1278:A2 *1407:C 0.000105493
12 *1278:A2 *1413:B2 5.07147e-05
13 *1278:A2 *127:12 0
14 *1278:A2 *248:65 1.17813e-05
15 *1376:A1 *431:I 0.000254067
16 *1376:A1 *1288:B 0.000117692
17 *1376:A1 *1290:A2 5.86023e-06
18 *1376:A1 *1296:A1 0.00011819
19 *1376:A1 *1377:A3 4.14291e-05
20 *1376:A1 *1407:A1 5.15578e-05
21 *1376:A1 *1542:I 0
22 *1376:A1 *105:14 1.59524e-05
23 *1376:A1 *224:19 0
24 *1376:A1 *279:10 0
25 *1455:D *1376:A1 0.000392096
26 *1462:D *1376:A1 0
27 *44:10 *1278:A2 0.00169674
28 *44:10 *1376:A1 0.000635547
*RES
1 *1255:ZN *103:6 9 
2 *103:6 *1376:A1 17.632 
3 *103:6 *1278:A2 15.552 
*END

*D_NET *104 0.0126451
*CONN
*I *1511:I I *D gf180mcu_fd_sc_mcu7t5v0__dlyb_1
*I *1510:I I *D gf180mcu_fd_sc_mcu7t5v0__dlyb_1
*I *1256:ZN O *D gf180mcu_fd_sc_mcu7t5v0__clkinv_1
*CAP
1 *1511:I 0.000293771
2 *1510:I 0.000779194
3 *1256:ZN 0.000928593
4 *104:12 0.00200156
5 *1510:I *400:I 0
6 *1510:I *1363:B 0.000240629
7 *1510:I *1366:A2 0.00028161
8 *1510:I *1404:B 0.00017298
9 *1510:I *1503:I 0.000338651
10 *1510:I *1548:I 4.6396e-06
11 *1510:I *265:38 3.1721e-05
12 *1511:I *400:I 0.000213482
13 *1511:I *1249:I 0.000193905
14 *1511:I *1406:A2 0.000671522
15 *1511:I *208:19 4.54554e-05
16 *1511:I *276:46 0.000194511
17 *104:12 *357:I 0.000109234
18 *104:12 *1249:I 0.000197944
19 *104:12 *1256:I 0.000737586
20 *104:12 *1383:A1 0.00062144
21 *104:12 *1383:A3 8.31407e-05
22 *104:12 *1404:B 0.000325477
23 *104:12 *1452:CLK 2.63059e-05
24 *104:12 *1503:I 0
25 *104:12 *1548:I 1.91479e-06
26 *104:12 *126:10 0.000451006
27 *104:12 *273:10 0.000522908
28 *104:12 *305:12 2.11222e-05
29 *1336:A1 *1511:I 0.00164194
30 *1336:A1 *104:12 0.000179413
31 *1429:D *1510:I 0.000131492
32 *1430:D *1511:I 0.000217349
33 *96:14 *1511:I 0.000547981
34 *97:8 *1510:I 2.14739e-05
35 *97:8 *104:12 8.1598e-06
36 *97:14 *1510:I 0.000406961
*RES
1 *1256:ZN *104:12 18.88 
2 *104:12 *1510:I 24.24 
3 *104:12 *1511:I 15.656 
*END

*D_NET *105 0.0107858
*CONN
*I *1407:A1 I *D gf180mcu_fd_sc_mcu7t5v0__oai221_4
*I *1508:I I *D gf180mcu_fd_sc_mcu7t5v0__buf_2
*I *1257:ZN O *D gf180mcu_fd_sc_mcu7t5v0__clkinv_1
*CAP
1 *1407:A1 0.00129305
2 *1508:I 0
3 *1257:ZN 0.000749638
4 *105:14 0.00204269
5 *1407:A1 *1290:A2 0.000975367
6 *1407:A1 *1369:A2 0.00157883
7 *1407:A1 *1372:A2 0
8 *1407:A1 *1374:B2 0.000358779
9 *1407:A1 *1377:A3 0.000267361
10 *1407:A1 *1407:B2 0.000175822
11 *1407:A1 *1548:I 2.73715e-06
12 *1407:A1 *224:12 0.000860577
13 *1407:A1 *231:50 4.43318e-06
14 *1407:A1 *279:10 6.86483e-05
15 *105:14 *431:I 6.72912e-05
16 *105:14 *1287:A2 0.00155544
17 *105:14 *1374:B2 0.000548628
18 *105:14 *1503:I 2.63994e-05
19 *105:14 *1548:I 2.01107e-05
20 *105:14 *287:20 4.78687e-06
21 *105:14 *287:44 1.24616e-05
22 *1376:A1 *1407:A1 5.15578e-05
23 *1376:A1 *105:14 1.59524e-05
24 *1452:D *105:14 0.000105224
*RES
1 *1257:ZN *105:14 20.676 
2 *105:14 *1508:I 4.5 
3 *105:14 *1407:A1 26.812 
*END

*D_NET *106 0.00551503
*CONN
*I *1401:A2 I *D gf180mcu_fd_sc_mcu7t5v0__aoi211_1
*I *1258:ZN O *D gf180mcu_fd_sc_mcu7t5v0__clkinv_1
*CAP
1 *1401:A2 0.000848022
2 *1258:ZN 0.000848022
3 *1401:A2 *422:I 7.60693e-05
4 *1401:A2 *1258:I 0.000627833
5 *1401:A2 *1402:A1 7.08287e-05
6 *1401:A2 *1404:A2 0.000827003
7 *1401:A2 *1428:CLK 0
8 *1401:A2 *208:19 4.97873e-06
9 *1401:A2 *276:46 0.00173111
10 *1401:A2 *290:151 0.000452453
11 *1401:A2 *340:37 2.21524e-05
12 *1428:D *1401:A2 6.56211e-06
*RES
1 *1258:ZN *1401:A2 18.672 
*END

*D_NET *107 0.00769907
*CONN
*I *1383:A1 I *D gf180mcu_fd_sc_mcu7t5v0__nand3_1
*I *1259:ZN O *D gf180mcu_fd_sc_mcu7t5v0__clkinv_1
*CAP
1 *1383:A1 0.00128421
2 *1259:ZN 0.00128421
3 *1383:A1 *1290:A2 0.000377698
4 *1383:A1 *1369:A2 0.000342477
5 *1383:A1 *1383:A3 0.00033657
6 *1383:A1 *1384:B 7.96846e-05
7 *1383:A1 *1460:CLK 0.000149829
8 *1383:A1 *1461:CLK 0.000547145
9 *1383:A1 *1464:CLK 0.000736243
10 *1383:A1 *126:10 0.00142617
11 *1383:A1 *210:6 7.84307e-05
12 *1383:A1 *223:12 0.000236729
13 *1383:A1 *305:8 8.84906e-05
14 *1383:A1 *305:12 4.64756e-05
15 *1464:D *1383:A1 6.32781e-05
16 *104:12 *1383:A1 0.00062144
*RES
1 *1259:ZN *1383:A1 33.288 
*END

*D_NET *108 0.0224081
*CONN
*I *1337:A3 I *D gf180mcu_fd_sc_mcu7t5v0__and3_1
*I *1356:B2 I *D gf180mcu_fd_sc_mcu7t5v0__aoi221_2
*I *1302:A2 I *D gf180mcu_fd_sc_mcu7t5v0__and2_1
*I *1401:B I *D gf180mcu_fd_sc_mcu7t5v0__aoi211_1
*I *1270:ZN O *D gf180mcu_fd_sc_mcu7t5v0__nor2_2
*CAP
1 *1337:A3 0
2 *1356:B2 0
3 *1302:A2 0.000101648
4 *1401:B 0
5 *1270:ZN 0.000756023
6 *108:43 0.00129122
7 *108:27 0.00186218
8 *108:14 0.00142863
9 *1302:A2 *1327:A1 0.000446071
10 *1302:A2 *1365:A1 0.000389359
11 *1302:A2 *143:31 8.48215e-05
12 *108:14 *1366:A2 0.000493752
13 *108:14 *1402:A2 0.000736138
14 *108:14 *1402:A3 0.000402871
15 *108:14 *206:14 0.000235761
16 *108:14 *218:41 0.000465206
17 *108:14 *233:18 2.13432e-05
18 *108:14 *280:31 5.65121e-05
19 *108:14 *289:99 0.000475716
20 *108:14 *292:47 3.95396e-05
21 *108:14 *293:54 0.000402871
22 *108:14 *302:27 0.000144086
23 *108:27 *1402:A3 0.00034103
24 *108:27 *1525:I 0.000981696
25 *108:27 *172:20 0.000332135
26 *108:27 *282:29 4.40271e-05
27 *108:27 *293:54 0.000591174
28 *108:27 *312:14 0.000638941
29 *108:43 *438:I 0.00018113
30 *108:43 *1326:B 0.000113027
31 *108:43 *1327:A1 0.000427044
32 *108:43 *1331:A1 8.48683e-06
33 *108:43 *1337:A1 1.04732e-05
34 *108:43 *1365:A1 0.00273615
35 *108:43 *1366:A2 0.000123433
36 *108:43 *1430:SETN 0.000115388
37 *108:43 *1518:I 0.000500858
38 *108:43 *144:52 0.00216952
39 *108:43 *172:20 0
40 *108:43 *207:12 0.000570581
41 *108:43 *243:67 0.000178865
42 *108:43 *312:14 2.37622e-05
43 *108:43 *336:31 0.000619771
44 *1337:A2 *108:27 0.000131407
45 *1337:A2 *108:43 8.1475e-05
46 *1341:A3 *108:43 0.000406972
47 *1430:D *108:27 0.00106678
48 *97:14 *108:27 0.000180224
*RES
1 *1270:ZN *108:14 21.924 
2 *108:14 *1401:B 4.5 
3 *108:14 *108:27 17.944 
4 *108:27 *108:43 25.64 
5 *108:43 *1302:A2 6.372 
6 *108:43 *1356:B2 4.5 
7 *108:27 *1337:A3 4.5 
*END

*D_NET *109 0.0139818
*CONN
*I *1546:I I *D gf180mcu_fd_sc_mcu7t5v0__dlyb_1
*I *1507:I I *D gf180mcu_fd_sc_mcu7t5v0__dlyb_1
*I *1271:ZN O *D gf180mcu_fd_sc_mcu7t5v0__nor2_1
*CAP
1 *1546:I 0.000135511
2 *1507:I 3.0553e-05
3 *1271:ZN 0.00231336
4 *109:24 0.00247943
5 *1507:I *1399:A2 2.37445e-05
6 *1507:I *1480:I 3.73779e-05
7 *1546:I *1399:A2 4.06938e-05
8 *1546:I *1480:I 9.16426e-05
9 *109:24 *391:I 4.71866e-06
10 *109:24 *1258:I 1.40331e-05
11 *109:24 *1357:A2 0.00040672
12 *109:24 *1398:I1 3.62345e-05
13 *109:24 *1400:A1 0.00029022
14 *109:24 *1574:I 0.000250495
15 *109:24 *120:18 0.000263381
16 *109:24 *135:20 0.00215664
17 *109:24 *175:16 5.2291e-05
18 *109:24 *243:21 0
19 *109:24 *265:38 0.000474288
20 *109:24 *276:46 0.000221496
21 *109:24 *290:151 0.00127374
22 *109:24 *297:26 0.000109456
23 *109:24 *301:10 0.00145855
24 *109:24 *308:18 6.48698e-05
25 *1427:D *109:24 0.00100018
26 *1456:D *109:24 0
27 *1459:D *109:24 0.000203587
28 *47:20 *109:24 0.000548548
*RES
1 *1271:ZN *109:24 46.836 
2 *109:24 *1507:I 4.812 
3 *109:24 *1546:I 5.436 
*END

*D_NET *110 0.0199153
*CONN
*I *1273:A2 I *D gf180mcu_fd_sc_mcu7t5v0__nor2_1
*I *1292:B1 I *D gf180mcu_fd_sc_mcu7t5v0__oai22_4
*I *1407:B1 I *D gf180mcu_fd_sc_mcu7t5v0__oai221_4
*I *1287:A2 I *D gf180mcu_fd_sc_mcu7t5v0__nand2_1
*I *1272:Z O *D gf180mcu_fd_sc_mcu7t5v0__or4_2
*CAP
1 *1273:A2 0.00184393
2 *1292:B1 0.000239366
3 *1407:B1 0.000236083
4 *1287:A2 0.000776393
5 *1272:Z 0.00116275
6 *110:37 0.000577615
7 *110:33 0.00265909
8 *110:14 0.00265213
9 *1273:A2 *1273:A1 0.000413711
10 *1273:A2 *1374:B2 6.7343e-05
11 *1273:A2 *1407:B2 0
12 *1273:A2 *1460:CLK 1.28651e-05
13 *1273:A2 *120:81 0
14 *1273:A2 *239:41 0
15 *1273:A2 *239:83 0
16 *1273:A2 *288:20 2.22625e-05
17 *1273:A2 *341:14 0.000108453
18 *1287:A2 *1287:A1 3.13822e-07
19 *1287:A2 *1367:A2 0.000225995
20 *1287:A2 *1374:B2 7.13115e-05
21 *1287:A2 *120:67 0.000758553
22 *1287:A2 *273:10 0.000495283
23 *1287:A2 *273:12 0.000282453
24 *1287:A2 *287:33 0.000100875
25 *1287:A2 *289:116 0.000247957
26 *1287:A2 *289:118 0.000612845
27 *1287:A2 *289:122 0.000540761
28 *1287:A2 *289:134 2.97547e-05
29 *1292:B1 *1273:A1 4.42682e-06
30 *1292:B1 *1292:B2 5.20016e-05
31 *1292:B1 *1372:A2 4.78385e-05
32 *1292:B1 *1430:CLK 1.86663e-05
33 *1407:B1 *1273:A1 0.000767756
34 *1407:B1 *1430:CLK 0
35 *110:14 *1294:A1 0.000123069
36 *110:14 *1397:A2 0.00092737
37 *110:14 *1402:A2 0
38 *110:14 *1406:A1 0
39 *110:14 *1505:I 0.000109233
40 *110:14 *192:8 1.5585e-05
41 *110:14 *206:14 0.000250983
42 *110:14 *287:20 7.82031e-05
43 *110:14 *289:99 6.8199e-07
44 *110:14 *289:116 0
45 *110:14 *302:27 6.75068e-05
46 *110:33 *1374:B2 8.16691e-05
47 *110:33 *1376:A2 0.00063375
48 *110:33 *1407:B2 0
49 *110:33 *1505:I 6.93286e-06
50 *110:33 *239:41 0
51 *110:33 *276:147 4.49236e-05
52 *110:33 *287:20 0.000378141
53 *110:33 *287:33 1.239e-05
54 *110:37 *1372:A2 0.000160936
55 *110:37 *280:72 0.00040025
56 *1469:I *1292:B1 1.97397e-05
57 *1469:I *110:37 1.96871e-05
58 *105:14 *1287:A2 0.00155544
*RES
1 *1272:Z *110:14 17.32 
2 *110:14 *1287:A2 18.256 
3 *110:14 *110:33 10.116 
4 *110:33 *110:37 5.852 
5 *110:37 *1407:B1 11.184 
6 *110:37 *1292:B1 10.456 
7 *110:33 *1273:A2 24.316 
*END

*D_NET *111 0.0174992
*CONN
*I *1410:A4 I *D gf180mcu_fd_sc_mcu7t5v0__nand4_1
*I *1275:A3 I *D gf180mcu_fd_sc_mcu7t5v0__nand3_1
*I *1281:A4 I *D gf180mcu_fd_sc_mcu7t5v0__nand4_1
*I *1280:A3 I *D gf180mcu_fd_sc_mcu7t5v0__nand3_1
*I *1274:ZN O *D gf180mcu_fd_sc_mcu7t5v0__nor2_2
*CAP
1 *1410:A4 0
2 *1275:A3 0
3 *1281:A4 0
4 *1280:A3 0.00119865
5 *1274:ZN 0.00035177
6 *111:28 0.00224553
7 *111:12 0.00114256
8 *111:8 0.000447443
9 *1280:A3 *1281:A3 3.86178e-05
10 *1280:A3 *1288:B 0.000297612
11 *1280:A3 *1380:A1 0.000750373
12 *1280:A3 *1383:A3 0.000105739
13 *1280:A3 *1542:I 0.000370192
14 *1280:A3 *126:28 0.000426347
15 *1280:A3 *223:12 0.000262946
16 *1280:A3 *223:16 0.000463116
17 *1280:A3 *248:65 2.99866e-05
18 *111:8 *1282:A2 0.00244331
19 *111:8 *1554:I 0.00145601
20 *111:8 *112:17 7.47044e-05
21 *111:8 *121:24 0.000261868
22 *111:12 *1276:A2 0.000402122
23 *111:12 *1554:I 0.000737647
24 *111:12 *112:17 0.000591167
25 *111:28 *414:I 7.46705e-05
26 *111:28 *1281:A3 4.07478e-05
27 *111:28 *1382:A1 0.00140172
28 *111:28 *1383:A2 0
29 *111:28 *1383:A3 1.32477e-05
30 *111:28 *1526:I 3.43641e-05
31 *111:28 *1528:I 0.000139431
32 *111:28 *1553:I 7.38674e-05
33 *111:28 *121:24 6.21329e-05
34 *111:28 *126:28 5.93804e-05
35 *111:28 *309:23 0.000261727
36 *1275:A2 *111:28 0.000214356
37 *1276:A1 *111:12 7.22138e-05
38 *1377:A1 *1280:A3 1.40331e-05
39 *1461:D *1280:A3 0.000570592
40 *44:10 *1280:A3 0.00023882
41 *98:12 *111:8 0.000130191
*RES
1 *1274:ZN *111:8 15.968 
2 *111:8 *111:12 7.1 
3 *111:12 *111:28 18.36 
4 *111:28 *1280:A3 25.148 
5 *111:28 *1281:A4 4.5 
6 *111:12 *1275:A3 4.5 
7 *111:8 *1410:A4 9 
*END

*D_NET *112 0.0115211
*CONN
*I *1282:A2 I *D gf180mcu_fd_sc_mcu7t5v0__nand2_1
*I *1408:A3 I *D gf180mcu_fd_sc_mcu7t5v0__oai31_1
*I *1276:A2 I *D gf180mcu_fd_sc_mcu7t5v0__nor2_1
*I *1275:ZN O *D gf180mcu_fd_sc_mcu7t5v0__nand3_1
*CAP
1 *1282:A2 0.0013081
2 *1408:A3 0.000338896
3 *1276:A2 0.000266249
4 *1275:ZN 0
5 *112:17 0.00174933
6 *112:6 0.000368579
7 *1276:A2 *1252:I 9.40615e-05
8 *1282:A2 *415:I 6.52692e-05
9 *1282:A2 *1252:I 7.69809e-05
10 *1282:A2 *1274:A2 0.000845089
11 *1282:A2 *1279:A2 5.01021e-05
12 *1282:A2 *1283:A1 4.9631e-05
13 *1282:A2 *1283:A2 8.48563e-06
14 *1282:A2 *1297:A1 0.000110108
15 *1282:A2 *1297:A2 0.000546191
16 *1282:A2 *120:81 0.000114625
17 *1282:A2 *121:24 0.000143732
18 *1282:A2 *345:40 7.87395e-06
19 *1408:A3 *1299:A2 0.000159226
20 *1408:A3 *1375:A1 0.000254586
21 *1408:A3 *1375:A2 0.000254586
22 *1408:A3 *1488:I 0.000118934
23 *1408:A3 *345:25 2.66768e-05
24 *112:17 *1252:I 0.000106313
25 *1276:A1 *1276:A2 6.5186e-05
26 *1410:A3 *1408:A3 0.000702745
27 *1464:D *1282:A2 0.000103788
28 *1541:I *1282:A2 2.73715e-06
29 *99:12 *1282:A2 7.16669e-05
30 *111:8 *1282:A2 0.00244331
31 *111:8 *112:17 7.47044e-05
32 *111:12 *1276:A2 0.000402122
33 *111:12 *112:17 0.000591167
*RES
1 *1275:ZN *112:6 9 
2 *112:6 *1276:A2 11.184 
3 *112:6 *112:17 1.768 
4 *112:17 *1408:A3 12.848 
5 *112:17 *1282:A2 21.584 
*END

*D_NET *113 0.00801672
*CONN
*I *1285:A2 I *D gf180mcu_fd_sc_mcu7t5v0__oai21_1
*I *1298:A1 I *D gf180mcu_fd_sc_mcu7t5v0__or3_1
*I *1300:A1 I *D gf180mcu_fd_sc_mcu7t5v0__aoi211_2
*I *1278:A3 I *D gf180mcu_fd_sc_mcu7t5v0__nor3_1
*I *1277:ZN O *D gf180mcu_fd_sc_mcu7t5v0__nand3_1
*CAP
1 *1285:A2 0
2 *1298:A1 3.45002e-05
3 *1300:A1 0.000232274
4 *1278:A3 0
5 *1277:ZN 0.000466487
6 *113:16 0.000372994
7 *113:10 0.000676796
8 *113:6 0.000968063
9 *1298:A1 *1466:CLK 0.000182219
10 *1298:A1 *123:45 6.32895e-05
11 *1300:A1 *1300:A2 3.7384e-05
12 *1300:A1 *1413:B2 1.30095e-05
13 *1300:A1 *127:12 0.00021503
14 *113:6 *1285:B 1.32185e-05
15 *113:6 *1286:A2 7.64116e-05
16 *113:6 *1342:B 0
17 *113:6 *1463:RN 6.23542e-05
18 *113:10 *350:I 0.000569033
19 *113:10 *1278:A1 0.00239919
20 *113:10 *228:24 0.000339262
21 *113:16 *350:I 4.73153e-05
22 *113:16 *1278:A1 0.000411828
23 *113:16 *1407:C 2.84715e-05
24 *113:16 *127:12 6.32895e-05
25 *1278:A2 *1300:A1 3.0561e-06
26 *1415:A1 *113:6 0.000602561
27 *1415:A1 *113:10 0.000122322
28 *1463:D *113:6 0
29 *44:10 *113:16 1.23682e-05
30 *101:16 *113:6 3.99399e-06
*RES
1 *1277:ZN *113:6 9.18 
2 *113:6 *113:10 12.3 
3 *113:10 *113:16 6.164 
4 *113:16 *1278:A3 4.5 
5 *113:16 *1300:A1 6.268 
6 *113:10 *1298:A1 9.52 
7 *113:6 *1285:A2 4.5 
*END

*D_NET *114 0.00631302
*CONN
*I *1412:A2 I *D gf180mcu_fd_sc_mcu7t5v0__aoi22_1
*I *1279:ZN O *D gf180mcu_fd_sc_mcu7t5v0__nor2_1
*CAP
1 *1412:A2 0.00200392
2 *1279:ZN 0.00200392
3 *1412:A2 *1252:I 0.000621169
4 *1412:A2 *1279:A2 0.000387086
5 *1412:A2 *1409:B1 0.000240662
6 *1412:A2 *1412:B2 0.000175822
7 *1412:A2 *344:27 0.000182111
8 *1275:A1 *1412:A2 3.63174e-05
9 *99:14 *1412:A2 0.000546615
10 *99:16 *1412:A2 0.000115388
*RES
1 *1279:ZN *1412:A2 37.92 
*END

*D_NET *115 0.00204277
*CONN
*I *1288:A2 I *D gf180mcu_fd_sc_mcu7t5v0__aoi21_1
*I *1280:ZN O *D gf180mcu_fd_sc_mcu7t5v0__nand3_1
*CAP
1 *1288:A2 0.000523732
2 *1280:ZN 0.000523732
3 *1288:A2 *1259:I 0.000625664
4 *1288:A2 *1280:A1 0.000273803
5 *1288:A2 *1288:B 7.47151e-05
6 *1280:A2 *1288:A2 2.11222e-05
*RES
1 *1280:ZN *1288:A2 31.16 
*END

*D_NET *116 0.0198896
*CONN
*I *1283:A1 I *D gf180mcu_fd_sc_mcu7t5v0__nand2_1
*I *1384:A1 I *D gf180mcu_fd_sc_mcu7t5v0__oai21_1
*I *1380:A1 I *D gf180mcu_fd_sc_mcu7t5v0__nor2_1
*I *1281:ZN O *D gf180mcu_fd_sc_mcu7t5v0__nand4_1
*CAP
1 *1283:A1 0.00145486
2 *1384:A1 0.000610201
3 *1380:A1 0.000135532
4 *1281:ZN 0.000298692
5 *116:20 0.00222822
6 *1283:A1 *1274:A1 0.000134339
7 *1283:A1 *1283:A2 7.87395e-06
8 *1283:A1 *1375:A3 0.00296488
9 *1283:A1 *1601:I 8.92511e-05
10 *1283:A1 *225:8 0.000475614
11 *1283:A1 *225:14 1.42358e-05
12 *1283:A1 *296:116 0.000328378
13 *1380:A1 *1382:A1 8.70366e-05
14 *1380:A1 *288:32 0.000464803
15 *1384:A1 *414:I 4.88715e-05
16 *1384:A1 *1384:B 0.000312664
17 *1384:A1 *126:28 0.00176617
18 *1384:A1 *296:116 0.000155224
19 *116:20 *1281:A1 0.000164173
20 *116:20 *1382:A1 2.39129e-05
21 *116:20 *1465:RN 9.68288e-05
22 *116:20 *306:8 4.46736e-05
23 *1280:A3 *1380:A1 0.000750373
24 *1282:A2 *1283:A1 4.9631e-05
25 *1415:A1 *1283:A1 0.00013692
26 *1462:D *1283:A1 0.000731308
27 *1462:D *1384:A1 0.00024022
28 *1462:D *116:20 1.40331e-05
29 *1464:D *1283:A1 0.00593178
30 *1464:D *1384:A1 0.000128866
*RES
1 *1281:ZN *1380:A1 11.184 
2 *1281:ZN *116:20 10.352 
3 *116:20 *1384:A1 16.176 
4 *116:20 *1283:A1 29.696 
*END

*D_NET *117 0.000501904
*CONN
*I *1283:A2 I *D gf180mcu_fd_sc_mcu7t5v0__nand2_1
*I *1282:ZN O *D gf180mcu_fd_sc_mcu7t5v0__nand2_1
*CAP
1 *1283:A2 0.000225923
2 *1282:ZN 0.000225923
3 *1283:A2 *1251:I 0
4 *1282:A2 *1283:A2 8.48563e-06
5 *1283:A1 *1283:A2 7.87395e-06
6 *1415:A1 *1283:A2 3.3698e-05
*RES
1 *1282:ZN *1283:A2 10.456 
*END

*D_NET *118 0.0170386
*CONN
*I *1506:I I *D gf180mcu_fd_sc_mcu7t5v0__buf_2
*I *1343:A2 I *D gf180mcu_fd_sc_mcu7t5v0__nand2_1
*I *1284:ZN O *D gf180mcu_fd_sc_mcu7t5v0__nand2_1
*CAP
1 *1506:I 5.9578e-05
2 *1343:A2 0.00271113
3 *1284:ZN 0.000896979
4 *118:14 0.00366769
5 *1343:A2 *350:I 5.87162e-06
6 *1343:A2 *441:I 0.000946864
7 *1343:A2 *1340:B 3.51644e-05
8 *1343:A2 *1344:B 0.000386888
9 *1343:A2 *1365:B2 0
10 *1343:A2 *1444:CLK 0.00101994
11 *1343:A2 *172:20 0
12 *1343:A2 *208:11 1.14203e-05
13 *1343:A2 *229:72 0
14 *1343:A2 *229:83 0.000271774
15 *1343:A2 *229:94 0.000776469
16 *1343:A2 *248:65 9.67323e-06
17 *1343:A2 *248:71 0.000356642
18 *1343:A2 *248:89 3.22441e-06
19 *1343:A2 *272:63 0.000447783
20 *1343:A2 *272:78 0.000255283
21 *1343:A2 *276:14 7.02181e-06
22 *1343:A2 *276:192 3.52808e-05
23 *1343:A2 *327:53 0
24 *1506:I *159:41 0.000212272
25 *1506:I *208:11 7.27642e-05
26 *118:14 *1403:B 0.000290923
27 *118:14 *1405:A1 3.34828e-05
28 *118:14 *159:12 0.00018025
29 *118:14 *159:41 0.00010924
30 *118:14 *196:10 0.0011797
31 *118:14 *208:11 3.48722e-05
32 *118:14 *208:19 1.37092e-05
33 *118:14 *229:72 0
34 *118:14 *293:12 0.000947665
35 *118:14 *293:14 0.000416933
36 *118:14 *293:22 0.000904691
37 *1341:A3 *1343:A2 0
38 *1341:A3 *118:14 4.27242e-05
39 *1444:D *1343:A2 0.000422487
40 *96:14 *118:14 0.000272178
*RES
1 *1284:ZN *118:14 23.588 
2 *118:14 *1343:A2 42.156 
3 *118:14 *1506:I 5.228 
*END

*D_NET *119 0.00106901
*CONN
*I *1286:A2 I *D gf180mcu_fd_sc_mcu7t5v0__nand2_1
*I *1285:ZN O *D gf180mcu_fd_sc_mcu7t5v0__oai21_1
*CAP
1 *1286:A2 0.000334767
2 *1285:ZN 0.000334767
3 *1286:A2 *1253:I 9.95131e-05
4 *1286:A2 *1285:A1 9.76253e-05
5 *1286:A2 *1342:B 6.61468e-06
6 *1286:A2 *274:97 5.08279e-05
7 *1286:A2 *274:108 6.84821e-05
8 *113:6 *1286:A2 7.64116e-05
*RES
1 *1285:ZN *1286:A2 11.704 
*END

*D_NET *120 0.0478793
*CONN
*I *360:I I *D gf180mcu_fd_sc_mcu7t5v0__antenna
*I *1289:A1 I *D gf180mcu_fd_sc_mcu7t5v0__nand2_1
*I *359:I I *D gf180mcu_fd_sc_mcu7t5v0__antenna
*I *1400:A1 I *D gf180mcu_fd_sc_mcu7t5v0__oai32_4
*I *399:I I *D gf180mcu_fd_sc_mcu7t5v0__antenna
*I *1287:ZN O *D gf180mcu_fd_sc_mcu7t5v0__nand2_1
*CAP
1 *360:I 0.000485769
2 *1289:A1 0
3 *359:I 2.99722e-05
4 *1400:A1 0.00164241
5 *399:I 0.00043903
6 *1287:ZN 0
7 *120:81 0.00690188
8 *120:67 0.00799654
9 *120:18 0.00329042
10 *120:12 0.00317969
11 *120:4 0.00352116
12 *359:I *1246:I 6.91632e-05
13 *359:I *1487:I 0.000187176
14 *360:I *354:I 7.12475e-05
15 *360:I *1250:I 1.76416e-05
16 *360:I *1274:A2 0.000451252
17 *360:I *227:31 0.000294766
18 *399:I *1291:A2 3.95545e-05
19 *399:I *1363:B 1.07369e-05
20 *399:I *1459:CLK 6.70074e-05
21 *399:I *209:6 0.000151406
22 *1400:A1 *1258:I 0.000328273
23 *1400:A1 *1264:I 4.73146e-05
24 *1400:A1 *1402:A3 0
25 *1400:A1 *1486:I 0.000674523
26 *1400:A1 *216:8 0.000449889
27 *1400:A1 *289:14 0.000263484
28 *1400:A1 *290:151 0.000363139
29 *1400:A1 *292:16 0.000880306
30 *1400:A1 *293:54 0.000557671
31 *1400:A1 *308:18 7.46667e-06
32 *120:12 *349:I 0.000111773
33 *120:12 *1367:A2 9.96348e-05
34 *120:12 *1454:RN 0.000698638
35 *120:12 *1578:I 0.000242266
36 *120:12 *1599:I 0.000275841
37 *120:12 *246:39 0.00104564
38 *120:12 *248:16 0.000150393
39 *120:12 *273:61 0.000375356
40 *120:12 *280:48 0
41 *120:12 *297:26 1.78421e-06
42 *120:18 *1578:I 4.62781e-05
43 *120:18 *246:39 0.000278974
44 *120:67 *363:I 0.000251886
45 *120:67 *1269:I 0.00025916
46 *120:67 *1284:A1 8.77841e-06
47 *120:67 *1287:A1 1.91027e-05
48 *120:67 *1294:A2 0.000428913
49 *120:67 *1367:A2 6.27466e-05
50 *120:67 *1373:A2 5.76977e-05
51 *120:67 *1374:A1 0.000609398
52 *120:67 *1374:B1 1.48303e-05
53 *120:67 *1379:A1 6.35093e-06
54 *120:67 *1383:A3 0.00010237
55 *120:67 *1404:B 0.000704872
56 *120:67 *1505:I 5.41402e-06
57 *120:67 *196:10 0.00098177
58 *120:67 *248:48 2.61971e-06
59 *120:67 *273:10 0
60 *120:67 *274:14 0.000240599
61 *120:67 *276:147 1.01642e-06
62 *120:67 *289:118 0
63 *120:67 *289:134 0.000322737
64 *120:81 *376:I 3.93243e-05
65 *120:81 *1274:A2 3.646e-05
66 *120:81 *1554:I 0.000135567
67 *120:81 *121:24 0.000282445
68 *120:81 *239:41 0.00148169
69 *120:81 *239:83 0.000157575
70 *120:81 *288:20 4.19977e-05
71 dac_p[2] *120:18 0.00203668
72 *1273:A2 *120:81 0
73 *1282:A2 *120:81 0.000114625
74 *1287:A2 *120:67 0.000758553
75 *1336:A1 *120:67 8.06223e-05
76 *1427:D *1400:A1 4.70154e-05
77 *1445:D *1400:A1 0.00017298
78 *47:8 *399:I 0.000971407
79 *47:20 *120:18 0.000112853
80 *86:16 *120:12 0
81 *86:16 *120:67 8.31473e-05
82 *94:16 *1400:A1 0.000155382
83 *94:16 *120:18 0.000236284
84 *94:37 *1400:A1 0
85 *98:12 *360:I 0.000454875
86 *98:12 *120:81 0.000100504
87 *109:24 *1400:A1 0.00029022
88 *109:24 *120:18 0.000263381
*RES
1 *1287:ZN *120:4 4.5 
2 *120:4 *120:12 23.352 
3 *120:12 *120:18 14.692 
4 *120:18 *399:I 12.848 
5 *120:18 *1400:A1 23.456 
6 *120:12 *359:I 14.02 
7 *120:4 *120:67 31.728 
8 *120:67 *120:81 40.4438 
9 *120:81 *1289:A1 9 
10 *120:81 *360:I 14.928 
*END

*D_NET *121 0.0157573
*CONN
*I *1289:A2 I *D gf180mcu_fd_sc_mcu7t5v0__nand2_1
*I *1288:ZN O *D gf180mcu_fd_sc_mcu7t5v0__aoi21_1
*CAP
1 *1289:A2 0
2 *1288:ZN 0.00261876
3 *121:24 0.00261876
4 *121:24 *377:I 0.00107667
5 *121:24 *415:I 3.28181e-05
6 *121:24 *448:I 0.000676812
7 *121:24 *1274:A2 0.000436296
8 *121:24 *1299:A2 0.000498837
9 *121:24 *1381:A2 0.000401089
10 *121:24 *1384:B 2.92431e-05
11 *121:24 *1457:SETN 2.27877e-05
12 *121:24 *1526:I 7.78636e-05
13 *121:24 *1528:I 3.1035e-05
14 *121:24 *1571:I 0.000114557
15 *121:24 *296:116 8.74768e-05
16 *121:24 *305:8 0
17 *121:24 *310:16 5.29106e-05
18 *1275:A1 *121:24 1.51321e-05
19 *1280:A2 *121:24 1.19584e-05
20 *1282:A2 *121:24 0.000143732
21 *1431:D *121:24 0.000141026
22 *1460:D *121:24 0.00504394
23 *98:12 *121:24 9.86431e-05
24 *99:12 *121:24 1.68614e-05
25 *99:16 *121:24 2.02028e-06
26 *100:16 *121:24 1.78817e-06
27 *100:58 *121:24 9.99902e-05
28 *100:64 *121:24 0.000799888
29 *111:8 *121:24 0.000261868
30 *111:28 *121:24 6.21329e-05
31 *120:81 *121:24 0.000282445
*RES
1 *1288:ZN *121:24 49.54 
2 *121:24 *1289:A2 4.5 
*END

*D_NET *122 0.0207047
*CONN
*I *1379:A2 I *D gf180mcu_fd_sc_mcu7t5v0__nor3_1
*I *1291:A2 I *D gf180mcu_fd_sc_mcu7t5v0__or2_1
*I *1290:ZN O *D gf180mcu_fd_sc_mcu7t5v0__nor2_1
*CAP
1 *1379:A2 0
2 *1291:A2 0.00195323
3 *1290:ZN 0.0015838
4 *122:20 0.00353703
5 *1291:A2 *1246:I 0.00250944
6 *1291:A2 *1291:A1 1.58691e-05
7 *1291:A2 *1310:B 0
8 *1291:A2 *1354:B 1.27189e-05
9 *1291:A2 *1357:A2 0.000122244
10 *1291:A2 *1361:A2 7.19198e-05
11 *1291:A2 *1363:B 6.50077e-06
12 *1291:A2 *1487:I 0.00010929
13 *1291:A2 *175:16 6.64383e-05
14 *1291:A2 *289:6 2.12609e-05
15 *1291:A2 *289:99 0.00025897
16 *1291:A2 *296:69 1.35291e-05
17 *122:20 *1290:A1 0.00011834
18 *122:20 *1357:A2 7.04619e-05
19 *122:20 *1366:A2 0.000243386
20 *122:20 *1369:A1 0.000668571
21 *122:20 *1369:B 9.35542e-06
22 *122:20 *1372:B 0.00034446
23 *122:20 *1374:A1 2.33885e-05
24 *122:20 *1379:A1 0.00109496
25 *122:20 *1503:I 0.000113547
26 *122:20 *1571:I 0.000166486
27 *122:20 *206:43 0.000234186
28 *122:20 *248:48 0
29 *122:20 *280:52 0.000247057
30 *122:20 *296:34 0.000201708
31 *122:20 *296:46 0.00011375
32 *122:20 *297:26 0.00420646
33 *122:20 *342:30 0.00100214
34 dac_p[3] *1291:A2 1.26446e-05
35 dac_p[3] *122:20 0.000105483
36 *399:I *1291:A2 3.95545e-05
37 *1450:D *122:20 0.000927249
38 *1453:D *122:20 6.53324e-05
39 *1454:D *122:20 1.28816e-05
40 *1459:D *1291:A2 8.19294e-05
41 *47:8 *1291:A2 0.000319146
*RES
1 *1290:ZN *122:20 35.756 
2 *122:20 *1291:A2 28.996 
3 *122:20 *1379:A2 4.5 
*END

*D_NET *123 0.0202561
*CONN
*I *1297:A1 I *D gf180mcu_fd_sc_mcu7t5v0__nor2_1
*I *1414:A3 I *D gf180mcu_fd_sc_mcu7t5v0__or4_1
*I *1300:C I *D gf180mcu_fd_sc_mcu7t5v0__aoi211_2
*I *1298:A2 I *D gf180mcu_fd_sc_mcu7t5v0__or3_1
*I *1397:A1 I *D gf180mcu_fd_sc_mcu7t5v0__nor2_2
*I *1402:A1 I *D gf180mcu_fd_sc_mcu7t5v0__nor3_1
*I *1292:ZN O *D gf180mcu_fd_sc_mcu7t5v0__oai22_4
*CAP
1 *1297:A1 0.00098367
2 *1414:A3 3.50181e-05
3 *1300:C 0
4 *1298:A2 0
5 *1397:A1 0.0001372
6 *1402:A1 0.00014478
7 *1292:ZN 0.00123107
8 *123:65 0.00166236
9 *123:52 0.000780324
10 *123:45 0.000754656
11 *123:16 0.000895041
12 *1297:A1 *415:I 0
13 *1297:A1 *1252:I 0.000136899
14 *1297:A1 *1279:A2 0.000158614
15 *1297:A1 *1297:A2 0.000388561
16 *1297:A1 *1412:B1 0
17 *1297:A1 *1545:I 7.15269e-06
18 *1297:A1 *128:8 5.70116e-06
19 *1297:A1 *226:27 0.000120555
20 *1397:A1 *1366:A2 2.65004e-06
21 *1397:A1 *1404:A2 0.00080691
22 *1397:A1 *302:18 0.000878328
23 *1402:A1 *1404:A2 0.000827003
24 *1402:A1 *340:37 0.00105305
25 *1414:A3 *1375:A3 0.000332578
26 *1414:A3 *296:116 0.000332578
27 *123:16 *1292:B2 4.69713e-05
28 *123:16 *1376:A2 0.00127485
29 *123:16 *1407:B2 2.3411e-05
30 *123:16 *208:15 8.32297e-05
31 *123:16 *208:19 2.46655e-06
32 *123:16 *231:22 0.000714597
33 *123:16 *276:20 4.27615e-05
34 *123:16 *276:46 0.000388377
35 *123:16 *287:10 0
36 *123:16 *340:37 3.4596e-05
37 *123:16 *343:27 0.000404701
38 *123:45 *1248:I 3.13206e-05
39 *123:45 *1349:A1 0
40 *123:45 *1407:C 0.000509088
41 *123:45 *1462:RN 5.43303e-05
42 *123:45 *1466:CLK 6.18264e-05
43 *123:45 *1550:I 0.000711434
44 *123:45 *302:10 0.000557671
45 *123:45 *343:12 0.000394759
46 *123:52 *1300:B 3.95985e-05
47 *123:52 *1466:CLK 2.19883e-05
48 *123:52 *198:26 2.86395e-05
49 *123:65 *415:I 0
50 *123:65 *1300:B 0.000166145
51 *123:65 *1415:A2 3.10787e-05
52 *123:65 *168:35 0
53 *123:65 *211:52 1.07369e-05
54 *123:65 *226:27 8.11207e-05
55 *1282:A2 *1297:A1 0.000110108
56 *1298:A1 *123:45 6.32895e-05
57 *1299:B *1297:A1 1.89858e-05
58 *1299:B *123:65 4.81274e-05
59 *1401:A2 *1402:A1 7.08287e-05
60 *1432:D *1297:A1 7.55263e-05
61 *1432:D *123:65 5.4546e-05
62 *1466:D *123:45 0.000554595
63 *1466:D *123:52 0.000542192
64 *1466:D *123:65 0.000540748
65 *96:12 *123:45 0.000786771
*RES
1 *1292:ZN *123:16 20.572 
2 *123:16 *1402:A1 7.516 
3 *123:16 *1397:A1 15.892 
4 *1292:ZN *123:45 13.132 
5 *123:45 *1298:A2 4.5 
6 *123:45 *123:52 1.56 
7 *123:52 *1300:C 4.5 
8 *123:52 *123:65 13.784 
9 *123:65 *1414:A3 14.436 
10 *123:65 *1297:A1 20.052 
*END

*D_NET *124 0.00907695
*CONN
*I *1407:C I *D gf180mcu_fd_sc_mcu7t5v0__oai221_4
*I *1300:A2 I *D gf180mcu_fd_sc_mcu7t5v0__aoi211_2
*I *1296:A2 I *D gf180mcu_fd_sc_mcu7t5v0__nor3_2
*I *1293:Z O *D gf180mcu_fd_sc_mcu7t5v0__or3_1
*CAP
1 *1407:C 0.000631243
2 *1300:A2 0.000369971
3 *1296:A2 0.00107881
4 *1293:Z 0.00104473
5 *124:16 0.00186227
6 *1296:A2 *1273:A1 3.4596e-05
7 *1296:A2 *1296:A1 4.07478e-05
8 *1296:A2 *1296:A3 0.000105959
9 *1296:A2 *1375:A2 6.35454e-05
10 *1296:A2 *1412:A1 2.84826e-05
11 *1296:A2 *1412:B1 1.07369e-05
12 *1296:A2 *1413:B2 7.37907e-06
13 *1296:A2 *231:16 0.000337133
14 *1300:A2 *1412:B2 0.000491359
15 *1300:A2 *1413:B2 7.0919e-05
16 *1300:A2 *127:12 6.735e-06
17 *1300:A2 *208:457 9.45521e-05
18 *1300:A2 *344:27 4.37436e-05
19 *1407:C *350:I 0.000131729
20 *1407:C *1278:A1 1.14453e-05
21 *1407:C *1466:CLK 1.07369e-05
22 *1407:C *1601:I 0
23 *1407:C *198:26 0.000208128
24 *1407:C *248:65 0.000129835
25 *1407:C *343:12 0.000150729
26 *124:16 *376:I 9.84829e-05
27 *124:16 *380:I 3.58179e-06
28 *124:16 *414:I 5.12047e-06
29 *124:16 *1412:B2 0.00010482
30 *124:16 *1465:RN 0.000176846
31 *124:16 *208:399 0.000101126
32 *124:16 *208:401 5.53233e-05
33 *124:16 *208:457 5.54132e-05
34 *124:16 *231:10 0.000235068
35 *124:16 *239:97 0.000534299
36 *124:16 *288:20 1.82798e-05
37 *1278:A2 *1296:A2 9.56992e-06
38 *1278:A2 *1407:C 0.000105493
39 *1300:A1 *1300:A2 3.7384e-05
40 *44:10 *1407:C 3.30571e-05
41 *113:16 *1407:C 2.84715e-05
42 *123:45 *1407:C 0.000509088
*RES
1 *1293:Z *124:16 24.344 
2 *124:16 *1296:A2 12.432 
3 *124:16 *1300:A2 11.704 
4 *1296:A2 *1407:C 23.824 
*END

*D_NET *125 0.0145186
*CONN
*I *1402:A2 I *D gf180mcu_fd_sc_mcu7t5v0__nor3_1
*I *1397:A2 I *D gf180mcu_fd_sc_mcu7t5v0__nor2_2
*I *1383:A3 I *D gf180mcu_fd_sc_mcu7t5v0__nand3_1
*I *1294:ZN O *D gf180mcu_fd_sc_mcu7t5v0__nor2_2
*CAP
1 *1402:A2 0.000431551
2 *1397:A2 0.000782733
3 *1383:A3 0.00194027
4 *1294:ZN 0.00229145
5 *1383:A3 *414:I 5.55757e-05
6 *1383:A3 *1294:A2 0.000367043
7 *1383:A3 *1377:A3 4.20169e-05
8 *1383:A3 *1460:CLK 0.000465544
9 *1383:A3 *1461:CLK 0.000191011
10 *1383:A3 *1542:I 2.04597e-06
11 *1383:A3 *1548:I 0.000566896
12 *1383:A3 *126:10 0.000964092
13 *1383:A3 *126:28 0.000584788
14 *1383:A3 *210:6 2.46831e-05
15 *1383:A3 *279:10 3.88847e-05
16 *1383:A3 *287:33 4.31695e-05
17 *1383:A3 *289:118 0
18 *1397:A2 *1284:A1 0.000198163
19 *1397:A2 *1294:A1 0.000198163
20 *1397:A2 *208:19 0
21 *1397:A2 *274:14 0.000181235
22 *1402:A2 *1428:CLK 0.000111066
23 *1402:A2 *192:8 5.35138e-05
24 *1402:A2 *206:14 0.000743677
25 *1402:A2 *208:19 0.000187624
26 *1402:A2 *218:41 0.000103788
27 *1402:A2 *293:54 0.000461814
28 *1402:A2 *340:37 0.000461814
29 *1280:A3 *1383:A3 0.000105739
30 *1377:A1 *1383:A3 0.000548443
31 *1383:A1 *1383:A3 0.00033657
32 *1464:D *1383:A3 0.00017298
33 *104:12 *1383:A3 8.31407e-05
34 *108:14 *1402:A2 0.000736138
35 *110:14 *1397:A2 0.00092737
36 *110:14 *1402:A2 0
37 *111:28 *1383:A3 1.32477e-05
38 *120:67 *1383:A3 0.00010237
*RES
1 *1294:ZN *1383:A3 37.136 
2 *1294:ZN *1397:A2 12.744 
3 *1397:A2 *1402:A2 23.616 
*END

*D_NET *126 0.0154488
*CONN
*I *1296:A3 I *D gf180mcu_fd_sc_mcu7t5v0__nor3_2
*I *1380:A2 I *D gf180mcu_fd_sc_mcu7t5v0__nor2_1
*I *1384:A2 I *D gf180mcu_fd_sc_mcu7t5v0__oai21_1
*I *1381:A3 I *D gf180mcu_fd_sc_mcu7t5v0__nor3_1
*I *1295:Z O *D gf180mcu_fd_sc_mcu7t5v0__or2_1
*CAP
1 *1296:A3 0.0009732
2 *1380:A2 0
3 *1384:A2 0
4 *1381:A3 0.000141575
5 *1295:Z 0.000915158
6 *126:28 0.00118427
7 *126:14 0.00117484
8 *126:10 0.0020205
9 *1296:A3 *1255:I 0.00035787
10 *1296:A3 *1296:A1 0.000113027
11 *1296:A3 *1516:I 0.000116476
12 *1296:A3 *1601:I 6.04406e-05
13 *1296:A3 *231:10 0
14 *1296:A3 *239:47 0.000112821
15 *1296:A3 *239:97 0
16 *1381:A3 *1396:A2 8.38714e-05
17 *126:14 *1465:RN 2.84053e-05
18 *126:14 *1542:I 0.000572464
19 *126:28 *414:I 1.07362e-05
20 *126:28 *1396:A2 0.000242879
21 *126:28 *239:97 4.55843e-06
22 *126:28 *296:116 3.20057e-06
23 *126:28 *298:86 0.000105995
24 *1278:A2 *1296:A3 2.43814e-05
25 *1280:A3 *126:28 0.000426347
26 *1296:A2 *1296:A3 0.000105959
27 *1383:A1 *126:10 0.00142617
28 *1383:A3 *126:10 0.000964092
29 *1383:A3 *126:28 0.000584788
30 *1384:A1 *126:28 0.00176617
31 *1458:D *1381:A3 0.000733283
32 *1458:D *126:28 3.646e-05
33 *1461:D *126:10 5.6515e-05
34 *1464:D *126:28 0.000262946
35 *44:10 *1296:A3 0.000201257
36 *44:10 *126:10 0.000127773
37 *104:12 *126:10 0.000451006
38 *111:28 *126:28 5.93804e-05
*RES
1 *1295:Z *126:10 18.984 
2 *126:10 *126:14 6.06 
3 *126:14 *126:28 24.94 
4 *126:28 *1381:A3 10.976 
5 *126:28 *1384:A2 9 
6 *126:14 *1380:A2 4.5 
7 *126:10 *1296:A3 16.28 
*END

*D_NET *127 0.00812837
*CONN
*I *1545:I I *D gf180mcu_fd_sc_mcu7t5v0__clkbuf_1
*I *1297:A2 I *D gf180mcu_fd_sc_mcu7t5v0__nor2_1
*I *1296:ZN O *D gf180mcu_fd_sc_mcu7t5v0__nor3_2
*CAP
1 *1545:I 0.000110084
2 *1297:A2 0.000129191
3 *1296:ZN 0.00134809
4 *127:12 0.00158737
5 *1297:A2 *1252:I 3.13633e-05
6 *1545:I *271:8 5.36847e-05
7 *127:12 *415:I 0.000102967
8 *127:12 *1300:B 0.000118229
9 *127:12 *1413:A2 0.000384688
10 *127:12 *1413:B2 3.30227e-05
11 *127:12 *128:8 0.000374809
12 *127:12 *198:26 0.0020848
13 *127:12 *208:457 6.35454e-05
14 *127:12 *271:8 0.00031918
15 *1278:A2 *127:12 0
16 *1282:A2 *1297:A2 0.000546191
17 *1297:A1 *1297:A2 0.000388561
18 *1297:A1 *1545:I 7.15269e-06
19 *1300:A1 *127:12 0.00021503
20 *1300:A2 *127:12 6.735e-06
21 *1414:A2 *127:12 0.000160383
22 *44:10 *127:12 0
23 *113:16 *127:12 6.32895e-05
*RES
1 *1296:ZN *127:12 17.188 
2 *127:12 *1297:A2 15.06 
3 *127:12 *1545:I 5.332 
*END

*D_NET *128 0.00170539
*CONN
*I *1409:A2 I *D gf180mcu_fd_sc_mcu7t5v0__oai22_1
*I *1413:A2 I *D gf180mcu_fd_sc_mcu7t5v0__oai22_1
*I *1297:ZN O *D gf180mcu_fd_sc_mcu7t5v0__nor2_1
*CAP
1 *1409:A2 0
2 *1413:A2 0.000215369
3 *1297:ZN 0.000242191
4 *128:8 0.00045756
5 *1413:A2 *1409:B2 1.43303e-05
6 *1297:A1 *128:8 5.70116e-06
7 *1414:A2 *1413:A2 1.07369e-05
8 *127:12 *1413:A2 0.000384688
9 *127:12 *128:8 0.000374809
*RES
1 *1297:ZN *128:8 6.372 
2 *128:8 *1413:A2 6.268 
3 *128:8 *1409:A2 4.5 
*END

*D_NET *129 0.00275281
*CONN
*I *1301:A2 I *D gf180mcu_fd_sc_mcu7t5v0__aoi22_1
*I *1298:Z O *D gf180mcu_fd_sc_mcu7t5v0__or3_1
*CAP
1 *1301:A2 0.000472924
2 *1298:Z 0.000472924
3 *1301:A2 *1301:B1 1.41781e-05
4 *1301:A2 *1301:B2 2.08983e-05
5 *1301:A2 *1349:A1 1.21365e-05
6 *1301:A2 *1415:B 0.000403565
7 *1301:A2 *1466:CLK 0.000133132
8 *1301:A2 *168:10 1.47533e-05
9 *1301:A2 *272:125 0.000110509
10 *1301:A2 *310:16 0.000251051
11 *1301:A2 *344:27 0.000482553
12 *1433:D *1301:A2 0.00035659
13 *1434:D *1301:A2 7.5959e-06
*RES
1 *1298:Z *1301:A2 22.784 
*END

*D_NET *130 0.0085976
*CONN
*I *1301:B1 I *D gf180mcu_fd_sc_mcu7t5v0__aoi22_1
*I *1299:ZN O *D gf180mcu_fd_sc_mcu7t5v0__oai21_1
*CAP
1 *1301:B1 0.00135016
2 *1299:ZN 0.00135016
3 *1301:B1 *377:I 0.000129265
4 *1301:B1 *378:I 0.00028775
5 *1301:B1 *1274:A1 0.000132321
6 *1301:B1 *1415:B 3.12979e-06
7 *1301:B1 *1433:CLK 0.000950547
8 *1301:B1 *214:41 0.000168198
9 *443:I *1301:B1 0.00199852
10 *1299:B *1301:B1 0.000194144
11 *1301:A2 *1301:B1 1.41781e-05
12 *1434:D *1301:B1 2.07013e-05
13 *98:12 *1301:B1 0.00199853
*RES
1 *1299:ZN *1301:B1 33.704 
*END

*D_NET *131 0.00385035
*CONN
*I *1415:B I *D gf180mcu_fd_sc_mcu7t5v0__aoi21_1
*I *1301:B2 I *D gf180mcu_fd_sc_mcu7t5v0__aoi22_1
*I *1300:ZN O *D gf180mcu_fd_sc_mcu7t5v0__aoi211_2
*CAP
1 *1415:B 0.000348502
2 *1301:B2 9.8079e-05
3 *1300:ZN 0.000327348
4 *131:12 0.000773928
5 *1301:B2 *378:I 3.96073e-05
6 *1301:B2 *272:117 8.18133e-06
7 *1415:B *1349:A1 5.01057e-05
8 *1415:B *1349:A2 0.000132021
9 *1415:B *1415:A2 1.91879e-05
10 *1415:B *272:117 6.8199e-07
11 *131:12 *1346:A1 0.000142293
12 *131:12 *1349:A2 0.000382445
13 *131:12 *1415:A2 0.000758569
14 *131:12 *272:117 5.6979e-06
15 *131:12 *344:27 0.00024723
16 *1301:A2 *1301:B2 2.08983e-05
17 *1301:A2 *1415:B 0.000403565
18 *1301:B1 *1415:B 3.12979e-06
19 *1433:D *1415:B 8.88809e-05
*RES
1 *1300:ZN *131:12 17.244 
2 *131:12 *1301:B2 5.228 
3 *131:12 *1415:B 7.516 
*END

*D_NET *132 0.0118641
*CONN
*I *1359:A1 I *D gf180mcu_fd_sc_mcu7t5v0__aoi211_2
*I *1322:A1 I *D gf180mcu_fd_sc_mcu7t5v0__aoi21_1
*I *1347:A2 I *D gf180mcu_fd_sc_mcu7t5v0__aoi211_2
*I *1303:A2 I *D gf180mcu_fd_sc_mcu7t5v0__aoi21_1
*I *1302:Z O *D gf180mcu_fd_sc_mcu7t5v0__and2_1
*CAP
1 *1359:A1 0.000235192
2 *1322:A1 0
3 *1347:A2 0.000351863
4 *1303:A2 0.000221709
5 *1302:Z 0.000174861
6 *132:16 0.00122728
7 *132:14 0.000723687
8 *132:12 0.000480027
9 *1303:A2 *1303:A1 1.65832e-05
10 *1303:A2 *1306:A1 0.000135078
11 *1303:A2 *1417:CLK 3.4596e-05
12 *1303:A2 *1495:I 5.28406e-05
13 *1347:A2 *1310:B 0.000497739
14 *1347:A2 *1591:I 0.0016369
15 *1347:A2 *261:8 0.000561049
16 *1347:A2 *285:51 0.00107892
17 *1359:A1 *1317:A2 0.000182208
18 *1359:A1 *1322:A2 1.76107e-05
19 *1359:A1 *1437:RN 0.000779716
20 *1359:A1 *175:16 0.000124459
21 *132:12 *1318:A1 7.15853e-05
22 *132:12 *1324:A2 4.58667e-05
23 *132:12 *143:14 7.05624e-05
24 *132:12 *143:31 5.91309e-05
25 *132:12 *175:16 0.000189725
26 *132:12 *328:60 0.000169331
27 *132:12 *333:22 6.96644e-06
28 *132:14 *1322:A2 4.52648e-05
29 *132:14 *1437:RN 7.37187e-05
30 *132:16 *1313:B 0.000224153
31 *132:16 *1322:A2 4.67771e-06
32 *132:16 *1417:CLK 0.0010592
33 *132:16 *1437:RN 0.000230185
34 *132:16 *143:14 0.000112642
35 *132:16 *220:6 0.000968805
*RES
1 *1302:Z *132:12 15.58 
2 *132:12 *132:14 0.728 
3 *132:14 *132:16 7.384 
4 *132:16 *1303:A2 6.06 
5 *132:16 *1347:A2 19.428 
6 *132:14 *1322:A1 4.5 
7 *132:12 *1359:A1 7.308 
*END

*D_NET *133 0.00728806
*CONN
*I *1306:A1 I *D gf180mcu_fd_sc_mcu7t5v0__oai21_1
*I *1303:ZN O *D gf180mcu_fd_sc_mcu7t5v0__aoi21_1
*CAP
1 *1306:A1 0.000633486
2 *1303:ZN 0.000633486
3 *1306:A1 *353:I 0.000627795
4 *1306:A1 *404:I 2.77076e-05
5 *1306:A1 *1303:A1 0.000103788
6 *1306:A1 *1303:B 8.79783e-05
7 *1306:A1 *1386:S 1.90528e-05
8 *1306:A1 *1416:CLK 0.000342104
9 *1306:A1 *1417:CLK 0.0010592
10 *1306:A1 *1436:RN 0.00047924
11 *1306:A1 *220:6 0.000113027
12 *1306:A1 *220:17 0.00122854
13 *1306:A1 *241:62 4.58772e-05
14 *1306:A1 *241:88 0.000334537
15 *1306:A1 *269:65 2.14739e-05
16 *1303:A2 *1306:A1 0.000135078
17 *1417:D *1306:A1 0.000394668
18 *1435:D *1306:A1 0.00100102
*RES
1 *1303:ZN *1306:A1 28.296 
*END

*D_NET *134 0.0200441
*CONN
*I *1306:B I *D gf180mcu_fd_sc_mcu7t5v0__oai21_1
*I *1304:ZN O *D gf180mcu_fd_sc_mcu7t5v0__nand2_1
*CAP
1 *1306:B 0
2 *1304:ZN 0.00918867
3 *134:24 0.00918867
4 *134:24 *404:I 0.000189208
5 *134:24 *1314:A1 7.8699e-05
6 *134:24 *1426:CLK 2.79802e-06
7 *134:24 *187:20 0.00114768
8 *134:24 *289:14 0.000130637
9 *134:24 *297:26 1.2853e-05
10 *134:24 *332:40 0.000104835
*RES
1 *1304:ZN *134:24 46.8444 
2 *134:24 *1306:B 9 
*END

*D_NET *135 0.0178482
*CONN
*I *1502:I I *D gf180mcu_fd_sc_mcu7t5v0__dlyb_1
*I *1501:I I *D gf180mcu_fd_sc_mcu7t5v0__dlyb_1
*I *1305:ZN O *D gf180mcu_fd_sc_mcu7t5v0__oai21_1
*CAP
1 *1502:I 0.000848478
2 *1501:I 0
3 *1305:ZN 0
4 *135:20 0.00289383
5 *135:4 0.0037423
6 *1502:I *412:I 0.000150818
7 *1502:I *429:I 1.30824e-05
8 *1502:I *1305:A2 0.000109233
9 *1502:I *1305:B 1.19922e-05
10 *1502:I *1331:A1 3.87446e-05
11 *1502:I *1338:A2 0.000621771
12 *1502:I *1344:A2 0.000244717
13 *1502:I *1349:A1 4.4504e-06
14 *1502:I *1372:A2 6.05694e-06
15 *1502:I *1374:B2 0.00152891
16 *1502:I *274:155 2.88156e-05
17 *1502:I *312:14 4.35979e-06
18 *135:20 *348:I 6.8763e-06
19 *135:20 *1305:A1 0.000183165
20 *135:20 *1372:A2 0.000118644
21 *135:20 *1374:B2 2.09988e-06
22 *135:20 *1470:I 3.7384e-05
23 *135:20 *1549:I 9.35542e-06
24 *135:20 *166:22 0.000889678
25 *135:20 *168:22 0.00216924
26 *135:20 *175:16 0.0013716
27 *135:20 *244:39 1.07369e-05
28 *135:20 *301:10 0.000459942
29 *1444:D *1502:I 0.000185295
30 *109:24 *135:20 0.00215664
*RES
1 *1305:ZN *135:4 4.5 
2 *135:4 *135:20 46.08 
3 *135:20 *1501:I 4.5 
4 *135:4 *1502:I 21.508 
*END

*D_NET *136 0.0106055
*CONN
*I *1350:A2 I *D gf180mcu_fd_sc_mcu7t5v0__aoi211_1
*I *1308:A2 I *D gf180mcu_fd_sc_mcu7t5v0__aoi21_1
*I *1347:B I *D gf180mcu_fd_sc_mcu7t5v0__aoi211_2
*I *1307:Z O *D gf180mcu_fd_sc_mcu7t5v0__and3_1
*CAP
1 *1350:A2 0.000215044
2 *1308:A2 0.000242431
3 *1347:B 0.00154355
4 *1307:Z 0.00116302
5 *136:32 0.000838
6 *1308:A2 *1308:A1 1.12609e-05
7 *1308:A2 *1351:A2 7.38538e-05
8 *1308:A2 *269:29 0
9 *1347:B *1347:A1 1.55426e-05
10 *1347:B *1347:C 2.38117e-05
11 *1347:B *1353:A1 0.00134238
12 *1347:B *1353:C 2.90891e-05
13 *1347:B *1354:B 4.49882e-05
14 *1347:B *1537:I 4.03666e-06
15 *1347:B *171:24 0.000256274
16 *1347:B *219:10 0.00150603
17 *1347:B *277:63 0
18 *1347:B *289:14 0.000117619
19 *1350:A2 *1308:A1 1.65918e-05
20 *1350:A2 *1351:A2 0.000534159
21 *136:32 *1310:B 0.00047208
22 *136:32 *1347:C 4.67771e-06
23 *136:32 *1351:A2 2.80885e-05
24 *136:32 *1494:I 5.36847e-05
25 *136:32 *261:8 0.000324113
26 *136:32 *276:91 0.000236549
27 *1307:A2 *1347:B 0.00150858
28 *1398:S *1350:A2 0
*RES
1 *1307:Z *1347:B 29.752 
2 *1347:B *136:32 18.076 
3 *136:32 *1308:A2 5.956 
4 *136:32 *1350:A2 6.268 
*END

*D_NET *137 0.00514312
*CONN
*I *1310:A2 I *D gf180mcu_fd_sc_mcu7t5v0__oai21_1
*I *1308:ZN O *D gf180mcu_fd_sc_mcu7t5v0__aoi21_1
*CAP
1 *1310:A2 0.000686455
2 *1308:ZN 0.000686455
3 *1310:A2 *410:I 1.33956e-05
4 *1310:A2 *1310:A1 0.000275443
5 *1310:A2 *1378:A2 0.000775837
6 *1310:A2 *1395:A2 0.000290196
7 *1310:A2 *263:10 0.000313488
8 *1310:A2 *264:8 0.00045331
9 *1310:A2 *269:10 2.64063e-05
10 *1310:A2 *269:44 0.000745086
11 *1310:A2 *276:91 0.00024941
12 *1310:A2 *285:57 3.64167e-07
13 *1436:D *1310:A2 0.000376096
14 *1445:D *1310:A2 0.000251178
*RES
1 *1308:ZN *1310:A2 35.944 
*END

*D_NET *138 0.01142
*CONN
*I *1310:B I *D gf180mcu_fd_sc_mcu7t5v0__oai21_1
*I *1309:ZN O *D gf180mcu_fd_sc_mcu7t5v0__nand2_1
*CAP
1 *1310:B 0.000927704
2 *1309:ZN 0.000927704
3 *1310:B *1291:A1 1.26717e-05
4 *1310:B *1310:A1 9.3968e-05
5 *1310:B *1348:A2 0.00463158
6 *1310:B *1351:A2 8.03933e-05
7 *1310:B *1426:RN 3.82231e-05
8 *1310:B *239:18 0.000104064
9 *1310:B *261:8 0.00116081
10 *1310:B *263:10 3.36601e-05
11 *1310:B *269:29 0.000265876
12 *1310:B *285:51 0.000970073
13 *1291:A2 *1310:B 0
14 *1347:A2 *1310:B 0.000497739
15 *1436:D *1310:B 6.46588e-06
16 *1445:D *1310:B 0.00119695
17 *136:32 *1310:B 0.00047208
*RES
1 *1309:ZN *1310:B 35.472 
*END

*D_NET *139 0.00572987
*CONN
*I *1400:A2 I *D gf180mcu_fd_sc_mcu7t5v0__oai32_4
*I *1373:A1 I *D gf180mcu_fd_sc_mcu7t5v0__aoi21_1
*I *1311:ZN O *D gf180mcu_fd_sc_mcu7t5v0__nor2_2
*CAP
1 *1400:A2 0.000748168
2 *1373:A1 0.000209544
3 *1311:ZN 0.000957713
4 *1373:A1 *1361:A2 7.42842e-05
5 *1373:A1 *1549:I 0.000644193
6 *1373:A1 *289:99 0.000192993
7 *1373:A1 *302:27 0.000284729
8 *1400:A2 *1270:A2 6.15743e-05
9 *1400:A2 *1572:I 0.000141361
10 *1400:A2 *230:39 3.2979e-05
11 *1400:A2 *290:151 2.54037e-05
12 *1400:A2 *291:79 0.000189508
13 *1400:A2 *340:37 0.000196407
14 *1311:A2 *1400:A2 0.000484625
15 *1400:B2 *1400:A2 0.00123734
16 *1428:D *1400:A2 0.000249046
*RES
1 *1311:ZN *1373:A1 11.912 
2 *1311:ZN *1400:A2 25.592 
*END

*D_NET *140 0.0141785
*CONN
*I *1353:A2 I *D gf180mcu_fd_sc_mcu7t5v0__aoi221_2
*I *1313:A2 I *D gf180mcu_fd_sc_mcu7t5v0__aoi21_1
*I *1350:B I *D gf180mcu_fd_sc_mcu7t5v0__aoi211_1
*I *1312:Z O *D gf180mcu_fd_sc_mcu7t5v0__and3_1
*CAP
1 *1353:A2 0
2 *1313:A2 0.00130574
3 *1350:B 0.00089026
4 *1312:Z 0.000214523
5 *140:25 0.00130574
6 *140:12 0.00110478
7 *1313:A2 *404:I 0.000156144
8 *1313:A2 *1316:A1 0.00104876
9 *1313:A2 *1327:A1 0.000178948
10 *1313:A2 *1328:B 9.00455e-05
11 *1313:A2 *1353:C 0.00138328
12 *1313:A2 *1480:I 1.49783e-05
13 *1313:A2 *229:51 0.000903228
14 *1313:A2 *292:8 0
15 *1313:A2 *292:78 0.000246245
16 *1313:A2 *330:8 0.000529171
17 *1350:B *1354:B 1.88206e-05
18 *1350:B *1445:RN 0.00027259
19 *1350:B *1446:RN 0.000176437
20 *1350:B *1467:RN 2.50972e-05
21 *1350:B *1519:I 0.000971377
22 *1350:B *1520:I 4.8346e-05
23 *1350:B *168:22 0.000492676
24 *1350:B *204:8 0.000420756
25 *1350:B *240:23 0
26 *1350:B *312:29 5.27707e-05
27 *1350:B *328:16 0.000158617
28 *140:12 *1353:B1 0.000111075
29 *140:12 *1520:I 0.000188231
30 *140:12 *170:26 0.000406054
31 *140:12 *175:16 7.39244e-05
32 *140:12 *243:67 0.000105797
33 *1307:A2 *1350:B 0.000464409
34 *1307:A2 *140:12 0.000637622
35 *95:8 *1350:B 0.000182072
*RES
1 *1312:Z *140:12 12.432 
2 *140:12 *1350:B 18.152 
3 *140:12 *140:25 4.5 
4 *140:25 *1313:A2 26.084 
5 *140:25 *1353:A2 4.5 
*END

*D_NET *141 0.0028223
*CONN
*I *1315:A2 I *D gf180mcu_fd_sc_mcu7t5v0__oai21_1
*I *1313:ZN O *D gf180mcu_fd_sc_mcu7t5v0__aoi21_1
*CAP
1 *1315:A2 0.000289754
2 *1313:ZN 0.000289754
3 *1315:A2 *1303:A1 3.07831e-05
4 *1315:A2 *1315:B 0.00090659
5 *1315:A2 *1327:A1 0.000454633
6 *1315:A2 *1327:A2 7.15269e-06
7 *1315:A2 *1328:B 2.37008e-05
8 *1315:A2 *269:65 0.00081993
*RES
1 *1313:ZN *1315:A2 21.952 
*END

*D_NET *142 0.0109493
*CONN
*I *1315:B I *D gf180mcu_fd_sc_mcu7t5v0__oai21_1
*I *1314:ZN O *D gf180mcu_fd_sc_mcu7t5v0__nand2_1
*CAP
1 *1315:B 0.000584603
2 *1314:ZN 0.000584603
3 *1315:B *1303:A1 1.48584e-05
4 *1315:B *1327:A1 0.000104752
5 *1315:B *1591:I 4.05503e-05
6 *1315:B *269:44 0.000199988
7 *1315:B *269:65 0.000976323
8 *1315:B *276:91 0.000709717
9 *1315:B *276:114 0.00505538
10 *1315:B *289:25 0.000772908
11 *1315:B *289:38 0.000801607
12 dout_valid *1315:B 5.88579e-05
13 *1315:A2 *1315:B 0.00090659
14 *7:26 *1315:B 0.000138591
*RES
1 *1314:ZN *1315:B 33.392 
*END

*D_NET *143 0.0161853
*CONN
*I *1365:A1 I *D gf180mcu_fd_sc_mcu7t5v0__aoi221_2
*I *1317:A2 I *D gf180mcu_fd_sc_mcu7t5v0__and2_1
*I *1353:B1 I *D gf180mcu_fd_sc_mcu7t5v0__aoi221_2
*I *1316:Z O *D gf180mcu_fd_sc_mcu7t5v0__and2_1
*CAP
1 *1365:A1 0.000709243
2 *1317:A2 0.000140245
3 *1353:B1 0.000394128
4 *1316:Z 0.000513182
5 *143:31 0.00110398
6 *143:14 0.0011618
7 *1317:A2 *392:I 0.000635054
8 *1317:A2 *1302:A1 3.74622e-05
9 *1317:A2 *1356:C 1.85287e-05
10 *1317:A2 *175:16 0.000182208
11 *1317:A2 *333:22 0.000667735
12 *1353:B1 *1318:A1 0.000125283
13 *1353:B1 *175:16 0.000189645
14 *1353:B1 *243:67 0.000112832
15 *1353:B1 *277:18 0.000461097
16 *1353:B1 *277:27 0.000709741
17 *1365:A1 *392:I 0.00012065
18 *1365:A1 *1322:A2 0
19 *1365:A1 *1326:A1 0.000978265
20 *1365:A1 *1330:A2 0.000707641
21 *1365:A1 *1332:B 4.5762e-05
22 *1365:A1 *1390:I1 0.000162103
23 *1365:A1 *144:52 0.000270357
24 *1365:A1 *267:18 3.43752e-05
25 *1365:A1 *290:34 0.000120523
26 *1365:A1 *335:49 1.26446e-05
27 *143:14 *1313:B 0.000245386
28 *143:14 *1318:A1 0.000313514
29 *143:14 *1322:A2 3.22108e-05
30 *143:14 *1435:RN 0.00057304
31 *143:14 *175:16 2.83242e-05
32 *143:14 *328:60 0.00145211
33 *143:31 *1322:A2 1.2259e-05
34 *143:31 *1327:A1 4.20416e-05
35 *143:31 *328:60 4.01514e-05
36 *1302:A2 *1365:A1 0.000389359
37 *1302:A2 *143:31 8.48215e-05
38 *1307:A2 *1353:B1 8.58618e-05
39 *1359:A1 *1317:A2 0.000182208
40 *108:43 *1365:A1 0.00273615
41 *132:12 *143:14 7.05624e-05
42 *132:12 *143:31 5.91309e-05
43 *132:16 *143:14 0.000112642
44 *140:12 *1353:B1 0.000111075
*RES
1 *1316:Z *143:14 16.072 
2 *143:14 *1353:B1 13.368 
3 *143:14 *143:31 6.58 
4 *143:31 *1317:A2 16.204 
5 *143:31 *1365:A1 15.836 
*END

*D_NET *144 0.0163366
*CONN
*I *1333:A1 I *D gf180mcu_fd_sc_mcu7t5v0__aoi21_1
*I *1368:A1 I *D gf180mcu_fd_sc_mcu7t5v0__aoi211_2
*I *1356:A2 I *D gf180mcu_fd_sc_mcu7t5v0__aoi221_2
*I *1318:A2 I *D gf180mcu_fd_sc_mcu7t5v0__aoi21_1
*I *1317:Z O *D gf180mcu_fd_sc_mcu7t5v0__and2_1
*CAP
1 *1333:A1 0.000183346
2 *1368:A1 0.000374715
3 *1356:A2 0.000259078
4 *1318:A2 0.000262566
5 *1317:Z 0
6 *144:52 0.00222213
7 *144:25 0.00227055
8 *144:4 0.000609963
9 *1318:A2 *1318:B 8.94086e-06
10 *1318:A2 *1322:B 0.000331071
11 *1318:A2 *1324:A2 0.000320803
12 *1318:A2 *1437:RN 0.000569211
13 *1318:A2 *333:22 2.37133e-06
14 *1333:A1 *1332:B 6.90003e-05
15 *1333:A1 *1335:A2 0.000360171
16 *1333:A1 *1368:C 1.38084e-05
17 *1333:A1 *270:37 0.000402021
18 *1333:A1 *276:192 4.02317e-05
19 *1356:A2 *1356:C 0.000391428
20 *1356:A2 *175:16 0
21 *1356:A2 *268:31 0.00038441
22 *1356:A2 *272:59 0.000427056
23 *1368:A1 *1332:B 0.000245986
24 *1368:A1 *1368:A2 3.17817e-05
25 *1368:A1 *1369:A2 1.78817e-06
26 *1368:A1 *266:20 6.8199e-07
27 *1368:A1 *276:192 0.000113168
28 *1368:A1 *327:20 0.000178425
29 *1368:A1 *327:36 2.32059e-05
30 *144:25 *392:I 0.000129786
31 *144:25 *1356:C 0.000348212
32 *144:25 *1437:RN 0.000279015
33 *144:25 *267:18 0.000153575
34 *144:25 *268:31 0.000757984
35 *144:52 *1326:B 7.64462e-05
36 *144:52 *1327:A1 0.000529171
37 *144:52 *1328:B 0.000162533
38 *144:52 *1332:B 0.000718509
39 *144:52 *1365:A2 3.73779e-05
40 *144:52 *147:22 0
41 *144:52 *268:25 5.9215e-05
42 *144:52 *327:8 1.71461e-05
43 *144:52 *327:36 8.16884e-06
44 *144:52 *336:31 3.57634e-06
45 *1365:A1 *144:52 0.000270357
46 *1438:D *1318:A2 0.000195531
47 *1438:D *144:25 0.000322603
48 *108:43 *144:52 0.00216952
*RES
1 *1317:Z *144:4 4.5 
2 *144:4 *1318:A2 16.516 
3 *144:4 *144:25 8.868 
4 *144:25 *1356:A2 11.6 
5 *144:25 *144:52 24.08 
6 *144:52 *1368:A1 11.912 
7 *144:52 *1333:A1 11.08 
*END

*D_NET *145 0.00110929
*CONN
*I *1320:A2 I *D gf180mcu_fd_sc_mcu7t5v0__oai21_1
*I *1318:ZN O *D gf180mcu_fd_sc_mcu7t5v0__aoi21_1
*CAP
1 *1320:A2 0.000411969
2 *1318:ZN 0.000411969
3 *1320:A2 *1318:A1 2.82894e-06
4 *1320:A2 *1324:A2 2.21028e-05
5 *1320:A2 *1437:RN 0
6 *1320:A2 *208:151 2.32529e-05
7 *1320:A2 *289:14 0.000237165
*RES
1 *1318:ZN *1320:A2 20.704 
*END

*D_NET *146 0.0196421
*CONN
*I *1320:B I *D gf180mcu_fd_sc_mcu7t5v0__oai21_1
*I *1319:ZN O *D gf180mcu_fd_sc_mcu7t5v0__nand2_1
*CAP
1 *1320:B 0.00125628
2 *1319:ZN 0.00229499
3 *146:30 0.00355127
4 *1320:B *423:I 1.06067e-05
5 *1320:B *1323:A1 0.00261994
6 *1320:B *1324:A1 0.000135454
7 *1320:B *1328:B 0.000105345
8 *1320:B *1563:I 8.7396e-05
9 *1320:B *241:88 0.0030986
10 *1320:B *267:18 5.63044e-06
11 *146:30 *361:I 0.000382096
12 *146:30 *1323:A1 0.00139796
13 *146:30 *1324:B 0.000324993
14 *146:30 *1393:S 0.000130241
15 *146:30 *1394:I0 8.72309e-05
16 *146:30 *1424:CLK 2.52646e-05
17 *146:30 *1444:RN 1.60681e-05
18 *146:30 *1444:CLK 7.63455e-05
19 *146:30 *1489:I 0.000849438
20 *146:30 *1514:I 0.000476383
21 *146:30 *1532:I 0.000204648
22 *146:30 *212:13 1.98185e-06
23 *146:30 *212:28 0.000177246
24 *146:30 *215:10 2.00702e-05
25 *146:30 *241:88 3.94467e-05
26 *146:30 *241:111 0.000888262
27 *146:30 *243:79 2.46866e-05
28 *146:30 *276:203 5.75258e-05
29 *146:30 *284:24 8.24525e-05
30 *146:30 *284:31 4.09286e-05
31 *146:30 *339:10 0.000217199
32 *1438:D *1320:B 0.000956133
33 *1439:D *1320:B 0
*RES
1 *1319:ZN *146:30 42.988 
2 *146:30 *1320:B 21.764 
*END

*D_NET *147 0.0076795
*CONN
*I *1368:A2 I *D gf180mcu_fd_sc_mcu7t5v0__aoi211_2
*I *1333:A2 I *D gf180mcu_fd_sc_mcu7t5v0__aoi21_1
*I *1544:I I *D gf180mcu_fd_sc_mcu7t5v0__buf_2
*I *1321:ZN O *D gf180mcu_fd_sc_mcu7t5v0__nor2_4
*CAP
1 *1368:A2 0.000211145
2 *1333:A2 0.000246166
3 *1544:I 0.000997323
4 *1321:ZN 0.000491973
5 *147:22 0.000962661
6 *1333:A2 *441:I 0.00110934
7 *1333:A2 *276:192 0.00037103
8 *1368:A2 *1342:A2 0
9 *1368:A2 *266:20 0.00019404
10 *1368:A2 *327:36 1.21338e-05
11 *1544:I *368:I 0.000279197
12 *1544:I *1365:A2 2.38656e-05
13 *1544:I *243:67 0.000323254
14 *1544:I *268:25 4.62723e-05
15 *1544:I *290:40 0.000386281
16 *147:22 *1365:A2 4.39372e-05
17 *147:22 *243:67 0.000256274
18 *147:22 *266:20 0.000422186
19 *147:22 *327:36 2.68415e-05
20 *1325:A1 *1544:I 0.00109665
21 *1329:A4 *1544:I 0.000113027
22 *1341:A1 *1544:I 3.41129e-05
23 *1368:A1 *1368:A2 3.17817e-05
24 *144:52 *147:22 0
*RES
1 *1321:ZN *1544:I 15.136 
2 *1544:I *147:22 8.556 
3 *147:22 *1333:A2 16.724 
4 *147:22 *1368:A2 6.372 
*END

*D_NET *148 0.00407855
*CONN
*I *1324:A2 I *D gf180mcu_fd_sc_mcu7t5v0__oai21_1
*I *1322:ZN O *D gf180mcu_fd_sc_mcu7t5v0__aoi21_1
*CAP
1 *1324:A2 0.00085067
2 *1322:ZN 0.00085067
3 *1324:A2 *1318:A1 0.000863112
4 *1324:A2 *1324:A1 0.000289938
5 *1324:A2 *241:88 0.000798868
6 *1324:A2 *289:14 0
7 *1324:A2 *333:16 0
8 *1324:A2 *333:22 0
9 *1318:A2 *1324:A2 0.000320803
10 *1320:A2 *1324:A2 2.21028e-05
11 *1438:D *1324:A2 3.65141e-05
12 *132:12 *1324:A2 4.58667e-05
*RES
1 *1322:ZN *1324:A2 25.592 
*END

*D_NET *149 0.0131433
*CONN
*I *1324:B I *D gf180mcu_fd_sc_mcu7t5v0__oai21_1
*I *1323:ZN O *D gf180mcu_fd_sc_mcu7t5v0__nand2_1
*CAP
1 *1324:B 0.00274875
2 *1323:ZN 0.00274875
3 *1324:B *361:I 1.13283e-05
4 *1324:B *393:I 4.18042e-05
5 *1324:B *409:I 0.000328849
6 *1324:B *417:I 0.000165218
7 *1324:B *1323:A1 0.0011389
8 *1324:B *1391:I0 0.000479475
9 *1324:B *1420:CLK 0.000583315
10 *1324:B *1421:CLK 0.000473187
11 *1324:B *1442:RN 3.21523e-05
12 *1324:B *1532:I 0.000162223
13 *1324:B *191:20 0.000237412
14 *1324:B *208:205 2.43345e-05
15 *1324:B *208:215 5.73024e-05
16 *1324:B *208:229 0.000266435
17 *1324:B *208:241 0.000899445
18 *1324:B *212:13 0.000799825
19 *1324:B *222:18 4.98229e-05
20 *1324:B *222:33 0.000393859
21 *1324:B *241:88 7.37094e-05
22 *1324:B *241:111 0.000189434
23 *1324:B *322:16 0.000831986
24 *1439:D *1324:B 8.08115e-05
25 *146:30 *1324:B 0.000324993
*RES
1 *1323:ZN *1324:B 46.704 
*END

*D_NET *150 0.0112784
*CONN
*I *1563:I I *D gf180mcu_fd_sc_mcu7t5v0__clkbuf_1
*I *1359:B I *D gf180mcu_fd_sc_mcu7t5v0__aoi211_2
*I *1325:ZN O *D gf180mcu_fd_sc_mcu7t5v0__nor4_4
*CAP
1 *1563:I 0.000689297
2 *1359:B 0.00177323
3 *1325:ZN 0.00108393
4 *1359:B *392:I 2.06162e-05
5 *1359:B *1437:RN 0.000323256
6 *1359:B *153:6 0.000158287
7 *1359:B *170:26 0.0001559
8 *1359:B *208:123 0.000257085
9 *1359:B *208:135 0
10 *1359:B *229:51 0.00117628
11 *1359:B *230:39 0.000645296
12 *1359:B *267:18 0.000144379
13 *1359:B *268:31 1.79889e-05
14 *1359:B *272:59 7.85461e-05
15 *1359:B *335:49 0.000403179
16 *1563:I *392:I 4.15864e-05
17 *1563:I *1324:A1 5.33908e-06
18 *1563:I *1496:I 2.46957e-05
19 *1563:I *267:18 0.00247749
20 *1563:I *289:14 0.000196653
21 *1320:B *1563:I 8.7396e-05
22 *1438:D *1359:B 0.000323256
23 *1438:D *1563:I 0.000355857
24 *94:54 *1359:B 0.000838833
*RES
1 *1325:ZN *1359:B 29.96 
2 *1359:B *1563:I 26.216 
*END

*D_NET *151 0.00451992
*CONN
*I *1328:A2 I *D gf180mcu_fd_sc_mcu7t5v0__oai21_1
*I *1326:ZN O *D gf180mcu_fd_sc_mcu7t5v0__aoi21_1
*CAP
1 *1328:A2 0.000602258
2 *1326:ZN 0.000602258
3 *1328:A2 *1326:A1 0.000509988
4 *1328:A2 *1328:B 0.00135181
5 *1328:A2 *1438:CLK 1.78817e-06
6 *1328:A2 *1440:CLK 4.34518e-05
7 *1328:A2 *208:123 0
8 *1328:A2 *208:135 0.000359978
9 *1328:A2 *221:13 5.15657e-05
10 *1328:A2 *335:49 0.000500761
11 *1439:D *1328:A2 0.000488468
12 *1440:D *1328:A2 7.5959e-06
*RES
1 *1326:ZN *1328:A2 25.904 
*END

*D_NET *152 0.0111667
*CONN
*I *1328:B I *D gf180mcu_fd_sc_mcu7t5v0__oai21_1
*I *1327:ZN O *D gf180mcu_fd_sc_mcu7t5v0__nand2_1
*CAP
1 *1328:B 0.0032851
2 *1327:ZN 0.0032851
3 *1328:B *1309:A1 4.01911e-05
4 *1328:B *1309:A2 1.12609e-05
5 *1328:B *1312:A2 0
6 *1328:B *1316:A1 3.33434e-06
7 *1328:B *1323:A1 0.000124202
8 *1328:B *1327:A1 0.000135113
9 *1328:B *1327:A2 0.000239765
10 *1328:B *1356:C 3.73779e-05
11 *1328:B *1468:I 0.000419587
12 *1328:B *208:123 0
13 *1328:B *208:135 6.45326e-05
14 *1328:B *208:205 5.12047e-06
15 *1328:B *230:39 0
16 *1328:B *268:25 0.00125381
17 *1328:B *277:63 3.40309e-05
18 *1328:B *290:34 0
19 *1328:B *290:40 0
20 *1328:B *330:8 6.53336e-05
21 *1328:B *335:49 0.000216413
22 *1312:A1 *1328:B 1.27149e-05
23 *1313:A2 *1328:B 9.00455e-05
24 *1315:A2 *1328:B 2.37008e-05
25 *1320:B *1328:B 0.000105345
26 *1328:A2 *1328:B 0.00135181
27 *1437:D *1328:B 0.000152336
28 *1439:D *1328:B 4.79893e-05
29 *144:52 *1328:B 0.000162533
*RES
1 *1327:ZN *1328:B 42.232 
*END

*D_NET *153 0.00900383
*CONN
*I *1562:I I *D gf180mcu_fd_sc_mcu7t5v0__clkbuf_1
*I *1365:B1 I *D gf180mcu_fd_sc_mcu7t5v0__aoi221_2
*I *1329:ZN O *D gf180mcu_fd_sc_mcu7t5v0__nor4_4
*CAP
1 *1562:I 0.000563843
2 *1365:B1 0.000160591
3 *1329:ZN 0.000290572
4 *153:6 0.00101501
5 *1365:B1 *1331:A1 0.000343539
6 *1365:B1 *172:20 0.000266992
7 *1365:B1 *207:12 4.54528e-05
8 *1562:I *372:I 7.94765e-05
9 *1562:I *1371:A1 5.66907e-05
10 *1562:I *1372:A2 0.000245653
11 *1562:I *159:41 3.22108e-05
12 *1562:I *159:43 0.000101885
13 *1562:I *170:26 0.00258946
14 *1562:I *229:72 6.97699e-05
15 *1562:I *312:14 0.000122332
16 *153:6 *1366:A2 0.000545367
17 *153:6 *170:26 0.00207336
18 *153:6 *229:51 0.00019841
19 *153:6 *229:72 4.49307e-05
20 *1359:B *153:6 0.000158287
*RES
1 *1329:ZN *153:6 10.22 
2 *153:6 *1365:B1 15.476 
3 *153:6 *1562:I 11.884 
*END

*D_NET *154 0.00264164
*CONN
*I *1332:A2 I *D gf180mcu_fd_sc_mcu7t5v0__oai21_1
*I *1330:ZN O *D gf180mcu_fd_sc_mcu7t5v0__aoi21_1
*CAP
1 *1332:A2 0.000345586
2 *1330:ZN 0.000345586
3 *1332:A2 *1328:A1 0.000247057
4 *1332:A2 *1330:A1 0
5 *1332:A2 *1330:B 0.000494697
6 *1332:A2 *1362:A2 0.000415965
7 *1332:A2 *327:53 0.000344443
8 *1332:A2 *327:55 0.000337071
9 *1332:A2 *336:16 0.000100004
10 *1441:D *1332:A2 1.12327e-05
*RES
1 *1330:ZN *1332:A2 13.576 
*END

*D_NET *155 0.00660488
*CONN
*I *1332:B I *D gf180mcu_fd_sc_mcu7t5v0__oai21_1
*I *1331:ZN O *D gf180mcu_fd_sc_mcu7t5v0__nand2_1
*CAP
1 *1332:B 0.00116016
2 *1331:ZN 0.00116016
3 *1332:B *1335:A2 0.000483054
4 *1332:B *1344:B 4.6966e-05
5 *1332:B *1368:C 0.00149267
6 *1332:B *1390:I1 0.000227823
7 *1332:B *159:41 0.000259996
8 *1332:B *270:37 8.45516e-05
9 *1332:B *274:81 0.000520588
10 *1332:B *274:155 1.52889e-05
11 *1332:B *276:192 7.436e-05
12 *1332:B *290:34 0
13 *1332:B *327:8 0
14 *1333:A1 *1332:B 6.90003e-05
15 *1365:A1 *1332:B 4.5762e-05
16 *1368:A1 *1332:B 0.000245986
17 *144:52 *1332:B 0.000718509
*RES
1 *1331:ZN *1332:B 29.44 
*END

*D_NET *156 0.00294626
*CONN
*I *1335:A2 I *D gf180mcu_fd_sc_mcu7t5v0__oai21_1
*I *1333:ZN O *D gf180mcu_fd_sc_mcu7t5v0__aoi21_1
*CAP
1 *1335:A2 0.000516449
2 *1333:ZN 0.000516449
3 *1335:A2 *441:I 0
4 *1335:A2 *1368:C 0.000334711
5 *1335:A2 *1531:I 5.97583e-05
6 *1335:A2 *1532:I 6.83697e-05
7 *1335:A2 *270:37 5.57504e-05
8 *1335:A2 *274:155 0.000101469
9 *1335:A2 *276:192 6.54899e-06
10 *1335:A2 *298:106 3.57634e-06
11 *1335:A2 *337:43 0.000389754
12 *1332:B *1335:A2 0.000483054
13 *1333:A1 *1335:A2 0.000360171
14 *1422:D *1335:A2 5.02018e-05
*RES
1 *1333:ZN *1335:A2 23.304 
*END

*D_NET *157 0.00509051
*CONN
*I *1335:B I *D gf180mcu_fd_sc_mcu7t5v0__oai21_1
*I *1334:ZN O *D gf180mcu_fd_sc_mcu7t5v0__nand2_1
*CAP
1 *1335:B 0.00111351
2 *1334:ZN 0.00111351
3 *1335:B *355:I 0
4 *1335:B *1323:A1 0
5 *1335:B *1335:A1 2.31997e-05
6 *1335:B *1391:I0 0.000517592
7 *1335:B *1531:I 0.00134611
8 *1335:B *1532:I 0.000202331
9 *1335:B *241:111 0.000193625
10 *1335:B *274:155 0.000159254
11 *1335:B *274:183 0
12 *1335:B *283:8 0.000419265
13 *1442:D *1335:B 2.11603e-06
*RES
1 *1334:ZN *1335:B 37.504 
*END

*D_NET *158 0.00998688
*CONN
*I *1373:A2 I *D gf180mcu_fd_sc_mcu7t5v0__aoi21_1
*I *1336:ZN O *D gf180mcu_fd_sc_mcu7t5v0__nor2_1
*CAP
1 *1373:A2 0.00299781
2 *1336:ZN 0.00299781
3 *1373:A2 *1357:A2 0.00127011
4 *1373:A2 *1372:B 3.42651e-05
5 *1373:A2 *1379:A1 0.000581432
6 *1373:A2 *246:14 0.000450705
7 *1373:A2 *272:31 0.000328632
8 *1373:A2 *297:26 2.60017e-05
9 *1336:A1 *1373:A2 0.00124241
10 *120:67 *1373:A2 5.76977e-05
*RES
1 *1336:ZN *1373:A2 43.64 
*END

*D_NET *159 0.0123548
*CONN
*I *1368:B I *D gf180mcu_fd_sc_mcu7t5v0__aoi211_2
*I *1371:A2 I *D gf180mcu_fd_sc_mcu7t5v0__aoi211_2
*I *1338:A2 I *D gf180mcu_fd_sc_mcu7t5v0__aoi21_1
*I *1403:B I *D gf180mcu_fd_sc_mcu7t5v0__oai211_1
*I *1337:Z O *D gf180mcu_fd_sc_mcu7t5v0__and3_1
*CAP
1 *1368:B 3.6366e-05
2 *1371:A2 0
3 *1338:A2 0.000307502
4 *1403:B 0.000522233
5 *1337:Z 0.000194616
6 *159:43 0.000397705
7 *159:41 0.000828315
8 *159:12 0.00141859
9 *1338:A2 *1331:A1 4.32143e-05
10 *1338:A2 *1338:A1 5.74919e-05
11 *1338:A2 *1369:A2 0.000544066
12 *1338:A2 *1371:C 0.00106891
13 *1338:A2 *266:20 0.000271764
14 *1338:A2 *338:39 3.82959e-06
15 *1403:B *208:11 8.34518e-05
16 *1403:B *276:20 0.000838535
17 *1403:B *293:12 0.000962265
18 *1403:B *293:14 0.000246151
19 *159:12 *1349:A1 0.000495242
20 *159:12 *229:72 0
21 *159:41 *372:I 0.000183856
22 *159:41 *1305:B 2.77775e-05
23 *159:41 *1349:A1 0.00060621
24 *159:41 *1371:A1 0.000103788
25 *159:41 *1372:A2 0.000104102
26 *159:41 *208:11 1.01859e-05
27 *159:41 *274:47 0.000310549
28 *159:41 *274:66 8.44565e-06
29 *159:41 *274:81 0.000163143
30 *159:41 *276:8 6.04169e-06
31 *159:41 *312:14 0
32 *159:43 *1371:A1 0.000430937
33 *159:43 *1372:A2 0.000245653
34 *159:43 *312:14 2.24654e-05
35 *1332:B *159:41 0.000259996
36 *1341:A3 *159:12 2.81522e-06
37 *1502:I *1338:A2 0.000621771
38 *1506:I *159:41 0.000212272
39 *1562:I *159:41 3.22108e-05
40 *1562:I *159:43 0.000101885
41 *118:14 *1403:B 0.000290923
42 *118:14 *159:12 0.00018025
43 *118:14 *159:41 0.00010924
*RES
1 *1337:Z *159:12 6.788 
2 *159:12 *1403:B 19.22 
3 *159:12 *159:41 15.76 
4 *159:41 *159:43 1.56 
5 *159:43 *1338:A2 18.284 
6 *159:43 *1371:A2 4.5 
7 *159:41 *1368:B 4.812 
*END

*D_NET *160 0.00315771
*CONN
*I *1340:A2 I *D gf180mcu_fd_sc_mcu7t5v0__oai21_1
*I *1338:ZN O *D gf180mcu_fd_sc_mcu7t5v0__aoi21_1
*CAP
1 *1340:A2 0.000579144
2 *1338:ZN 0.000579144
3 *1340:A2 *1340:A1 0.00018099
4 *1340:A2 *1443:CLK 0.000476175
5 *1340:A2 *1514:I 0
6 *1340:A2 *248:65 0.000980838
7 *1340:A2 *248:89 0.000361417
*RES
1 *1338:ZN *1340:A2 23.2 
*END

*D_NET *161 0.00060535
*CONN
*I *1340:B I *D gf180mcu_fd_sc_mcu7t5v0__oai21_1
*I *1339:ZN O *D gf180mcu_fd_sc_mcu7t5v0__nand2_1
*CAP
1 *1340:B 0.000188855
2 *1339:ZN 0.000188855
3 *1340:B *350:I 0.000161548
4 *1340:B *248:65 3.09273e-05
5 *1343:A2 *1340:B 3.51644e-05
*RES
1 *1339:ZN *1340:B 19.352 
*END

*D_NET *162 0.00607752
*CONN
*I *1342:A2 I *D gf180mcu_fd_sc_mcu7t5v0__aoi21_1
*I *1371:B I *D gf180mcu_fd_sc_mcu7t5v0__aoi211_2
*I *1341:ZN O *D gf180mcu_fd_sc_mcu7t5v0__nor4_4
*CAP
1 *1342:A2 0.000112439
2 *1371:B 0.000840241
3 *1341:ZN 0.000727802
4 *1342:A2 *1369:A2 0.000553294
5 *1342:A2 *1374:B2 0.000334063
6 *1342:A2 *327:20 4.50672e-05
7 *1371:B *1329:A3 9.78174e-05
8 *1371:B *1331:A1 0.000738666
9 *1371:B *1365:B2 0.000146737
10 *1371:B *1368:C 0.000144536
11 *1371:B *1369:A2 1.73106e-05
12 *1371:B *1371:C 0.000103788
13 *1371:B *170:26 0.00183203
14 *1371:B *207:12 2.19883e-05
15 *1371:B *266:20 0.000264468
16 *1371:B *274:97 9.72765e-05
17 *1368:A2 *1342:A2 0
*RES
1 *1341:ZN *1371:B 18.672 
2 *1371:B *1342:A2 10.872 
*END

*D_NET *163 0.018767
*CONN
*I *1344:A2 I *D gf180mcu_fd_sc_mcu7t5v0__oai21_1
*I *1374:B2 I *D gf180mcu_fd_sc_mcu7t5v0__aoi22_1
*I *1342:ZN O *D gf180mcu_fd_sc_mcu7t5v0__aoi21_1
*CAP
1 *1344:A2 0.00061884
2 *1374:B2 0.00233342
3 *1342:ZN 0
4 *163:4 0.00295226
5 *1344:A2 *429:I 0.00019537
6 *1344:A2 *1344:A1 0.000105623
7 *1344:A2 *1344:B 6.32394e-06
8 *1344:A2 *1514:I 5.72435e-05
9 *1344:A2 *327:20 1.02007e-05
10 *1344:A2 *338:28 0.000598258
11 *1374:B2 *431:I 0.000546921
12 *1374:B2 *1287:A1 0.000440593
13 *1374:B2 *1305:A1 0.000860381
14 *1374:B2 *1369:A2 0.000156032
15 *1374:B2 *1376:B 0.00025083
16 *1374:B2 *1379:A1 0.0004039
17 *1374:B2 *1407:B2 0.000329581
18 *1374:B2 *1514:I 3.55699e-06
19 *1374:B2 *231:50 0.00147402
20 *1374:B2 *274:47 0.001076
21 *1374:B2 *274:97 7.05729e-05
22 *1374:B2 *287:20 0.00150479
23 *1374:B2 *287:44 0.000660171
24 *1374:B2 *287:46 0.000507827
25 *1374:B2 *289:134 4.67771e-06
26 *1374:B2 *327:20 0.000129348
27 *1273:A2 *1374:B2 6.7343e-05
28 *1287:A2 *1374:B2 7.13115e-05
29 *1342:A2 *1374:B2 0.000334063
30 *1407:A1 *1374:B2 0.000358779
31 *1444:D *1344:A2 0.000184473
32 *1452:D *1374:B2 4.82568e-05
33 *1502:I *1344:A2 0.000244717
34 *1502:I *1374:B2 0.00152891
35 *105:14 *1374:B2 0.000548628
36 *110:33 *1374:B2 8.16691e-05
37 *135:20 *1374:B2 2.09988e-06
*RES
1 *1342:ZN *163:4 4.5 
2 *163:4 *1374:B2 49.436 
3 *163:4 *1344:A2 18.284 
*END

*D_NET *164 0.00493992
*CONN
*I *1344:B I *D gf180mcu_fd_sc_mcu7t5v0__oai21_1
*I *1343:ZN O *D gf180mcu_fd_sc_mcu7t5v0__nand2_1
*CAP
1 *1344:B 0.000553018
2 *1343:ZN 0.000553018
3 *1344:B *1340:A1 0.00150607
4 *1344:B *1344:A1 2.63994e-05
5 *1344:B *1443:CLK 5.37778e-05
6 *1344:B *1444:CLK 3.5919e-05
7 *1344:B *270:16 0.000347043
8 *1344:B *270:37 5.6979e-06
9 *1344:B *276:192 0.000109714
10 *1332:B *1344:B 4.6966e-05
11 *1343:A2 *1344:B 0.000386888
12 *1344:A2 *1344:B 6.32394e-06
13 *1444:D *1344:B 0.00130908
*RES
1 *1343:ZN *1344:B 17.32 
*END

*D_NET *165 0.0121435
*CONN
*I *1504:I I *D gf180mcu_fd_sc_mcu7t5v0__dlyb_1
*I *1503:I I *D gf180mcu_fd_sc_mcu7t5v0__dlyb_1
*I *1345:ZN O *D gf180mcu_fd_sc_mcu7t5v0__nor2_1
*CAP
1 *1504:I 0.000137294
2 *1503:I 0.00195929
3 *1345:ZN 0.000230164
4 *165:6 0.00232675
5 *1503:I *1265:I 9.78e-05
6 *1503:I *1363:B 0
7 *1503:I *1404:B 0
8 *1503:I *1452:CLK 0.000114435
9 *1503:I *1454:CLK 6.30369e-05
10 *1503:I *223:36 3.57634e-06
11 *1503:I *230:39 5.72081e-05
12 *1503:I *265:38 0.00157045
13 *1503:I *296:46 0.00132331
14 *1503:I *299:8 3.45625e-05
15 *1503:I *299:17 5.03829e-05
16 *1504:I *1376:B 0.00129754
17 *1504:I *280:72 0.00129754
18 *165:6 *1345:A1 9.76253e-05
19 *165:6 *223:36 3.98205e-05
20 *165:6 *265:14 0.000121595
21 *1450:D *1503:I 0.000720673
22 *1452:D *1503:I 0.000113457
23 *1452:D *165:6 8.35454e-06
24 *1510:I *1503:I 0.000338651
25 *104:12 *1503:I 0
26 *105:14 *1503:I 2.63994e-05
27 *122:20 *1503:I 0.000113547
*RES
1 *1345:ZN *165:6 6.06 
2 *165:6 *1503:I 30.556 
3 *165:6 *1504:I 17.14 
*END

*D_NET *166 0.0463603
*CONN
*I *378:I I *D gf180mcu_fd_sc_mcu7t5v0__antenna
*I *379:I I *D gf180mcu_fd_sc_mcu7t5v0__antenna
*I *1348:B I *D gf180mcu_fd_sc_mcu7t5v0__oai21_1
*I *1346:ZN O *D gf180mcu_fd_sc_mcu7t5v0__nand2_1
*CAP
1 *378:I 0.000755763
2 *379:I 0.00699833
3 *1348:B 0
4 *1346:ZN 0
5 *166:22 0.00612404
6 *166:12 0.0137035
7 *166:6 0.00133689
8 *378:I *377:I 0.000501725
9 *378:I *1415:A2 9.6457e-05
10 *378:I *272:117 0.00138181
11 *166:12 *1346:A1 9.73572e-05
12 *166:12 *1415:A2 4.86708e-05
13 *166:12 *168:22 2.27666e-06
14 *166:12 *168:35 6.89249e-06
15 *166:22 *350:I 0
16 *166:22 *1260:I 0.0034907
17 *166:22 *1304:A1 0.000112293
18 *166:22 *1346:A1 0
19 *166:22 *168:22 0.000168785
20 *166:22 *171:24 0.0073866
21 *166:22 *177:22 9.79312e-05
22 *166:22 *229:22 4.01627e-05
23 *166:22 *239:12 0
24 *166:22 *239:18 0.00250283
25 *166:22 *298:26 0.000231883
26 *1299:B *378:I 3.71485e-05
27 *1299:B *166:12 2.11915e-05
28 *1301:B1 *378:I 0.00028775
29 *1301:B2 *378:I 3.96073e-05
30 *7:26 *166:22 0
31 *135:20 *166:22 0.000889678
*RES
1 *1346:ZN *166:6 9 
2 *166:6 *166:12 7.13343 
3 *166:12 *166:22 47.2598 
4 *166:22 *1348:B 13.5 
5 *166:12 *379:I 32.6711 
6 *166:6 *378:I 16.592 
*END

*D_NET *167 0.0154776
*CONN
*I *1348:A2 I *D gf180mcu_fd_sc_mcu7t5v0__oai21_1
*I *1347:ZN O *D gf180mcu_fd_sc_mcu7t5v0__aoi211_2
*CAP
1 *1348:A2 0.000660174
2 *1347:ZN 0.000660174
3 *1348:A2 *1260:I 0.000241344
4 *1348:A2 *1262:I 6.74933e-05
5 *1348:A2 *1304:A1 6.02261e-06
6 *1348:A2 *1304:A2 0.00266581
7 *1348:A2 *276:77 5.17489e-05
8 *1348:A2 *285:51 0.00294086
9 *1348:A2 *285:57 0.000766111
10 *1348:A2 *296:61 0.00275095
11 *1310:B *1348:A2 0.00463158
12 *1445:D *1348:A2 3.53326e-05
*RES
1 *1347:ZN *1348:A2 38.28 
*END

*D_NET *168 0.0374229
*CONN
*I *382:I I *D gf180mcu_fd_sc_mcu7t5v0__antenna
*I *381:I I *D gf180mcu_fd_sc_mcu7t5v0__antenna
*I *1351:B I *D gf180mcu_fd_sc_mcu7t5v0__oai21_1
*I *1349:ZN O *D gf180mcu_fd_sc_mcu7t5v0__nand2_1
*CAP
1 *382:I 0.00127889
2 *381:I 0.000103365
3 *1351:B 0.000895598
4 *1349:ZN 7.3739e-05
5 *168:35 0.00228529
6 *168:22 0.00648116
7 *168:10 0.00656234
8 *381:I *225:14 8.16357e-05
9 *381:I *272:117 5.70116e-06
10 *381:I *310:16 0.000105621
11 *382:I *386:I 0.000510324
12 *382:I *415:I 0.000235246
13 *382:I *1274:A1 3.0277e-06
14 *382:I *1352:A1 1.35329e-05
15 *382:I *1355:A2 0.000111775
16 *382:I *170:26 0.000611548
17 *382:I *170:55 0.000573992
18 *382:I *272:86 0.00024759
19 *382:I *272:97 0.000784493
20 *382:I *272:109 0.00194266
21 *382:I *272:186 5.25928e-06
22 *382:I *296:116 3.51479e-05
23 *382:I *324:23 0.00210304
24 *382:I *325:8 0.000134935
25 *382:I *325:12 2.07034e-05
26 *1351:B *1246:I 0.000378334
27 *1351:B *1364:A1 0.000289026
28 *1351:B *1448:RN 8.88134e-05
29 *1351:B *1448:CLK 0.000408338
30 *1351:B *246:39 0.0010918
31 *1351:B *281:35 0.00012135
32 *1351:B *281:43 1.12327e-05
33 *168:10 *1349:A1 0.000242777
34 *168:10 *272:125 3.22108e-05
35 *168:10 *310:16 4.55764e-06
36 *168:22 *1246:I 0.00102844
37 *168:22 *1354:B 0.00026417
38 *168:22 *1361:A1 0.00041388
39 *168:22 *1448:RN 0.00026342
40 *168:22 *175:16 0
41 *168:22 *216:21 0.000342968
42 *168:35 *415:I 0.000234407
43 dac_p[4] *1351:B 3.18325e-05
44 *1301:A2 *168:10 1.47533e-05
45 *1350:B *168:22 0.000492676
46 *1456:D *1351:B 0.00151028
47 *1460:D *382:I 0.00102164
48 *1464:D *381:I 0.000327554
49 *94:16 *1351:B 0.000316878
50 *94:16 *168:22 0.000937771
51 *123:65 *168:35 0
52 *135:20 *168:22 0.00216924
53 *166:12 *168:22 2.27666e-06
54 *166:12 *168:35 6.89249e-06
55 *166:22 *168:22 0.000168785
*RES
1 *1349:ZN *168:10 14.228 
2 *168:10 *168:22 43.708 
3 *168:22 *1351:B 20.44 
4 *168:10 *168:35 4.472 
5 *168:35 *381:I 14.748 
6 *168:35 *382:I 30.556 
*END

*D_NET *169 0.0106235
*CONN
*I *1351:A2 I *D gf180mcu_fd_sc_mcu7t5v0__oai21_1
*I *1350:ZN O *D gf180mcu_fd_sc_mcu7t5v0__aoi211_1
*CAP
1 *1351:A2 0.00181203
2 *1350:ZN 0.00181203
3 *1351:A2 *1262:I 0
4 *1351:A2 *1291:A1 0.00115748
5 *1351:A2 *1308:A1 0.000248743
6 *1351:A2 *1378:A2 0.000317553
7 *1351:A2 *1593:I 0.000667459
8 *1351:A2 *1594:I 0.000238973
9 *1351:A2 *1595:I 0.000106908
10 *1351:A2 *229:22 0.000774942
11 *1351:A2 *269:29 0.000203516
12 *1351:A2 *276:91 0.00174286
13 samp_bot *1351:A2 0.000423426
14 samp_top *1351:A2 1.43055e-05
15 *1308:A2 *1351:A2 7.38538e-05
16 *1310:B *1351:A2 8.03933e-05
17 *1350:A2 *1351:A2 0.000534159
18 *1445:D *1351:A2 0.000271568
19 *7:26 *1351:A2 0.000115185
20 *136:32 *1351:A2 2.80885e-05
*RES
1 *1350:ZN *1351:A2 39.32 
*END

*D_NET *170 0.0438852
*CONN
*I *385:I I *D gf180mcu_fd_sc_mcu7t5v0__antenna
*I *386:I I *D gf180mcu_fd_sc_mcu7t5v0__antenna
*I *1354:B I *D gf180mcu_fd_sc_mcu7t5v0__oai21_1
*I *1352:ZN O *D gf180mcu_fd_sc_mcu7t5v0__nand2_1
*CAP
1 *385:I 0.000171606
2 *386:I 0.000498222
3 *1354:B 0.00186373
4 *1352:ZN 0
5 *170:55 0.00116189
6 *170:26 0.00442904
7 *170:6 0.00305737
8 *385:I *383:I 8.11931e-06
9 *385:I *419:I 0
10 *385:I *172:57 3.37255e-05
11 *385:I *241:119 7.93412e-05
12 *386:I *1355:A1 0.000687729
13 *386:I *1355:A2 9.84747e-05
14 *386:I *172:57 2.42322e-05
15 *386:I *272:186 3.88655e-05
16 *1354:B *1271:A1 0.000573637
17 *1354:B *1398:I1 6.99224e-05
18 *1354:B *1448:CLK 0.000936433
19 *1354:B *209:23 0.000704683
20 *1354:B *209:25 0.000356031
21 *1354:B *241:31 0.000501755
22 *1354:B *241:62 0.00117428
23 *1354:B *265:38 0.000492786
24 *1354:B *289:6 1.84169e-05
25 *1354:B *289:14 0.00502748
26 *1354:B *289:99 1.84221e-05
27 *1354:B *296:46 0.000485513
28 *1354:B *296:69 0.00017298
29 *170:26 *1329:A3 4.55764e-06
30 *170:26 *1341:A2 0.000117381
31 *170:26 *1353:A1 3.57634e-06
32 *170:26 *1353:C 0.000397744
33 *170:26 *1357:A2 9.86318e-05
34 *170:26 *1368:C 3.22108e-05
35 *170:26 *1375:A3 2.21141e-05
36 *170:26 *1432:RN 9.32341e-05
37 *170:26 *1514:I 0.000865143
38 *170:26 *1520:I 1.36398e-06
39 *170:26 *1601:I 8.44565e-06
40 *170:26 *205:25 0.00174541
41 *170:26 *214:26 6.36863e-05
42 *170:26 *214:41 8.09109e-05
43 *170:26 *225:8 4.44924e-05
44 *170:26 *228:10 9.03002e-05
45 *170:26 *228:16 0.00121689
46 *170:26 *228:24 0.000174813
47 *170:26 *229:51 8.07417e-05
48 *170:26 *243:67 0.000376485
49 *170:26 *266:20 0.000226509
50 *170:26 *274:97 0.00102459
51 *170:26 *274:108 0
52 *170:26 *296:116 3.34071e-05
53 *170:26 *312:14 6.77605e-06
54 *170:55 *1434:RN 0.000835804
55 *170:55 *172:20 7.84357e-05
56 *170:55 *172:57 1.26329e-05
57 *170:55 *228:10 6.92086e-05
58 *170:55 *241:119 0.000184793
59 *170:55 *272:86 0.000246179
60 *170:55 *296:116 1.23748e-05
61 *170:55 *324:23 0.000241985
62 *382:I *386:I 0.000510324
63 *382:I *170:26 0.000611548
64 *382:I *170:55 0.000573992
65 *1291:A2 *1354:B 1.27189e-05
66 *1307:A2 *1354:B 7.69974e-05
67 *1347:B *1354:B 4.49882e-05
68 *1350:B *1354:B 1.88206e-05
69 *1359:B *170:26 0.0001559
70 *1371:B *170:26 0.00183203
71 *1446:D *1354:B 0.00017712
72 *1447:D *1354:B 6.82106e-06
73 *1459:D *1354:B 0.00061113
74 *1464:D *170:26 0.000544806
75 *1562:I *170:26 0.00258946
76 *94:16 *1354:B 0.00202156
77 *95:8 *1354:B 2.87521e-05
78 *101:16 *170:26 0.000149122
79 *140:12 *170:26 0.000406054
80 *153:6 *170:26 0.00207336
81 *168:22 *1354:B 0.00026417
*RES
1 *1352:ZN *170:6 9 
2 *170:6 *170:26 43.528 
3 *170:26 *1354:B 45.04 
4 *170:6 *170:55 10.116 
5 *170:55 *386:I 17.972 
6 *170:55 *385:I 5.748 
*END

*D_NET *171 0.0163813
*CONN
*I *1354:A2 I *D gf180mcu_fd_sc_mcu7t5v0__oai21_1
*I *1353:ZN O *D gf180mcu_fd_sc_mcu7t5v0__aoi221_2
*CAP
1 *1354:A2 0
2 *1353:ZN 0.00388345
3 *171:24 0.00388345
4 *171:24 *1353:C 9.09749e-05
5 *171:24 *1357:B 6.40912e-05
6 *171:24 *229:22 0.000689246
7 *171:24 *298:26 0
8 *1347:B *171:24 0.000256274
9 *1447:D *171:24 0.000127257
10 *7:26 *171:24 0
11 *166:22 *171:24 0.0073866
*RES
1 *1353:ZN *171:24 46.3552 
2 *171:24 *1354:A2 4.5 
*END

*D_NET *172 0.0369812
*CONN
*I *390:I I *D gf180mcu_fd_sc_mcu7t5v0__antenna
*I *389:I I *D gf180mcu_fd_sc_mcu7t5v0__antenna
*I *1357:B I *D gf180mcu_fd_sc_mcu7t5v0__oai21_1
*I *1355:ZN O *D gf180mcu_fd_sc_mcu7t5v0__nand2_1
*CAP
1 *390:I 0.000105689
2 *389:I 0
3 *1357:B 0.00453598
4 *1355:ZN 0
5 *172:57 0.000494974
6 *172:20 0.008468
7 *172:4 0.00432131
8 *390:I *419:I 5.01413e-06
9 *1357:B *1271:A2 0
10 *1357:B *1399:B1 9.59923e-05
11 *1357:B *229:22 0.00492521
12 *1357:B *230:39 0.000439619
13 *1357:B *239:41 0
14 *1357:B *276:46 0.000336625
15 *1357:B *298:26 0.00290373
16 *1357:B *308:18 0.000291001
17 *1357:B *319:16 0
18 *172:20 *419:I 0.000137695
19 *172:20 *444:I 7.17539e-05
20 *172:20 *1319:A1 0
21 *172:20 *1331:A1 2.7767e-05
22 *172:20 *1365:A2 0.000116349
23 *172:20 *1365:B2 0.000156691
24 *172:20 *1525:I 0.000981696
25 *172:20 *207:12 5.39368e-06
26 *172:20 *208:265 0.00109249
27 *172:20 *208:301 0.000584276
28 *172:20 *229:72 4.54885e-05
29 *172:20 *243:67 0.000125262
30 *172:20 *243:79 0.000565634
31 *172:20 *298:106 0.000379251
32 *172:20 *312:14 0.00120245
33 *172:20 *327:53 0.000171035
34 *172:20 *336:16 3.58826e-05
35 *172:57 *419:I 8.73475e-05
36 *172:57 *1355:A1 0.000393533
37 *172:57 *1355:A2 3.10673e-05
38 *172:57 *272:186 2.92601e-05
39 *385:I *172:57 3.37255e-05
40 *386:I *172:57 2.42322e-05
41 *1341:A3 *172:20 0.000572415
42 *1343:A2 *172:20 0
43 *1365:B1 *172:20 0.000266992
44 *1428:D *1357:B 5.45868e-05
45 *1430:D *172:20 7.3735e-05
46 *1441:D *172:20 4.6392e-05
47 *1446:D *1357:B 1.22861e-05
48 *96:14 *172:20 0.00224611
49 *108:27 *172:20 0.000332135
50 *108:43 *172:20 0
51 *170:55 *172:20 7.84357e-05
52 *170:55 *172:57 1.26329e-05
53 *171:24 *1357:B 6.40912e-05
*RES
1 *1355:ZN *172:4 4.5 
2 *172:4 *172:20 49.588 
3 *172:20 *1357:B 49.9478 
4 *172:4 *172:57 11.912 
5 *172:57 *389:I 4.5 
6 *172:57 *390:I 5.228 
*END

*D_NET *173 0.0190022
*CONN
*I *1357:A2 I *D gf180mcu_fd_sc_mcu7t5v0__oai21_1
*I *1356:ZN O *D gf180mcu_fd_sc_mcu7t5v0__aoi221_2
*CAP
1 *1357:A2 0.0026103
2 *1356:ZN 0.0026103
3 *1357:A2 *1264:I 0.00174262
4 *1357:A2 *1360:B 0.00289858
5 *1357:A2 *1373:B 1.84416e-05
6 *1357:A2 *1379:A1 0.000914879
7 *1357:A2 *175:16 0.00012936
8 *1357:A2 *205:25 0.00137769
9 *1357:A2 *243:67 0.000360772
10 *1357:A2 *244:39 0.000450599
11 *1357:A2 *246:14 0.00029237
12 *1357:A2 *272:31 1.14963e-05
13 *1357:A2 *272:46 5.00267e-05
14 *1357:A2 *272:59 0.00217142
15 *1357:A2 *277:12 0.000152316
16 *1357:A2 *281:29 4.39547e-05
17 *1357:A2 *297:26 0.000768207
18 *1357:A2 *301:10 0.000111484
19 dac_p[3] *1357:A2 9.96908e-05
20 *1291:A2 *1357:A2 0.000122244
21 *1373:A2 *1357:A2 0.00127011
22 *1448:D *1357:A2 8.24093e-05
23 *1456:D *1357:A2 0.000137132
24 *109:24 *1357:A2 0.00040672
25 *122:20 *1357:A2 7.04619e-05
26 *170:26 *1357:A2 9.86318e-05
*RES
1 *1356:ZN *1357:A2 49.824 
*END

*D_NET *174 0.00720233
*CONN
*I *1360:B I *D gf180mcu_fd_sc_mcu7t5v0__oai21_1
*I *1358:ZN O *D gf180mcu_fd_sc_mcu7t5v0__nand2_1
*CAP
1 *1360:B 0.00127883
2 *1358:ZN 0.00127883
3 *1360:B *1372:B 9.06465e-05
4 *1360:B *1374:B1 0.0010406
5 *1360:B *1449:CLK 0.000104393
6 *1360:B *1579:I 3.05273e-05
7 *1360:B *175:16 4.97341e-06
8 *1360:B *246:14 2.42194e-05
9 *1360:B *273:61 7.6322e-05
10 *1360:B *301:10 9.07847e-05
11 dac_p[4] *1360:B 0.000104393
12 *1357:A2 *1360:B 0.00289858
13 *1426:D *1360:B 0.000179238
*RES
1 *1358:ZN *1360:B 29.544 
*END

*D_NET *175 0.0144239
*CONN
*I *1360:A2 I *D gf180mcu_fd_sc_mcu7t5v0__oai21_1
*I *1359:ZN O *D gf180mcu_fd_sc_mcu7t5v0__aoi211_2
*CAP
1 *1360:A2 0
2 *1359:ZN 0.00394875
3 *175:16 0.00394875
4 *175:16 *1246:I 3.26833e-05
5 *175:16 *1302:A1 0.000510573
6 *175:16 *1317:A1 0.000319414
7 *175:16 *1322:A2 0.000174945
8 *175:16 *1356:C 0
9 *175:16 *1372:B 7.05729e-05
10 *175:16 *1374:B1 7.5904e-06
11 *175:16 *1487:I 1.92086e-05
12 *175:16 *1520:I 5.13931e-05
13 *175:16 *1549:I 0.000204659
14 *175:16 *204:8 0.000149102
15 *175:16 *216:21 9.87489e-05
16 *175:16 *244:39 7.49402e-05
17 *175:16 *277:12 0.000654104
18 *175:16 *281:29 0.000553061
19 *175:16 *289:99 9.95709e-05
20 *175:16 *297:26 3.8479e-05
21 *175:16 *301:10 9.67323e-06
22 *175:16 *333:22 1.57138e-05
23 dac_p[3] *175:16 0.000632454
24 dac_p[4] *175:16 4.16532e-05
25 *1291:A2 *175:16 6.64383e-05
26 *1307:A2 *175:16 3.20057e-06
27 *1317:A2 *175:16 0.000182208
28 *1353:B1 *175:16 0.000189645
29 *1356:A2 *175:16 0
30 *1357:A2 *175:16 0.00012936
31 *1359:A1 *175:16 0.000124459
32 *1360:B *175:16 4.97341e-06
33 *1426:D *175:16 0.00021115
34 *1449:D *175:16 0.000140591
35 *109:24 *175:16 5.2291e-05
36 *132:12 *175:16 0.000189725
37 *135:20 *175:16 0.0013716
38 *140:12 *175:16 7.39244e-05
39 *143:14 *175:16 2.83242e-05
40 *168:22 *175:16 0
*RES
1 *1359:ZN *175:16 46.156 
2 *175:16 *1360:A2 4.5 
*END

*D_NET *176 0.00900856
*CONN
*I *1363:B I *D gf180mcu_fd_sc_mcu7t5v0__oai21_1
*I *1361:ZN O *D gf180mcu_fd_sc_mcu7t5v0__nand2_1
*CAP
1 *1363:B 0.00208728
2 *1361:ZN 0.00208728
3 *1363:B *400:I 0.000638464
4 *1363:B *1249:I 0.000162703
5 *1363:B *1270:A1 0.000253244
6 *1363:B *1270:A2 0.000182219
7 *1363:B *1361:A2 8.81161e-05
8 *1363:B *1366:A2 0
9 *1363:B *1448:RN 0.000477997
10 *1363:B *1454:CLK 6.61468e-06
11 *1363:B *1479:I 0.000147371
12 *1363:B *1493:I 0.000549595
13 *1363:B *1548:I 0.000227971
14 *1363:B *206:22 0.000142605
15 *1363:B *209:6 0.000603116
16 *1363:B *233:18 0.000115388
17 *1363:B *280:31 4.50277e-05
18 *1363:B *289:99 0.00076388
19 *1363:B *299:8 0.000143212
20 *1363:B *299:17 2.86067e-05
21 *399:I *1363:B 1.07369e-05
22 *1291:A2 *1363:B 6.50077e-06
23 *1503:I *1363:B 0
24 *1510:I *1363:B 0.000240629
*RES
1 *1361:ZN *1363:B 46.344 
*END

*D_NET *177 0.0133582
*CONN
*I *1363:A2 I *D gf180mcu_fd_sc_mcu7t5v0__oai21_1
*I *1362:ZN O *D gf180mcu_fd_sc_mcu7t5v0__aoi211_2
*CAP
1 *1363:A2 0
2 *1362:ZN 0.00460985
3 *177:22 0.00460985
4 *177:22 *438:I 1.86806e-05
5 *177:22 *1341:A4 0.000135099
6 *177:22 *1362:B 0.000137294
7 *177:22 *1366:A2 0.000224001
8 *177:22 *1518:I 1.85258e-06
9 *177:22 *206:14 4.67533e-05
10 *177:22 *266:20 0.00123511
11 *177:22 *290:34 4.97642e-06
12 *177:22 *290:40 1.72241e-05
13 *177:22 *308:18 0.00179736
14 *86:16 *177:22 0.000422171
15 *166:22 *177:22 9.79312e-05
*RES
1 *1362:ZN *177:22 47.1678 
2 *177:22 *1363:A2 9 
*END

*D_NET *178 0.0100909
*CONN
*I *1366:B I *D gf180mcu_fd_sc_mcu7t5v0__oai21_1
*I *1364:ZN O *D gf180mcu_fd_sc_mcu7t5v0__nand2_1
*CAP
1 *1366:B 0.000724938
2 *1364:ZN 0.000724938
3 *1366:B *1246:I 0.000491544
4 *1366:B *1364:A1 0.000754475
5 *1366:B *1364:A2 7.96342e-05
6 *1366:B *1578:I 0.00079498
7 *1366:B *1579:I 5.25412e-05
8 *1366:B *246:39 0.000150479
9 dac_p[6] *1366:B 0.000263733
10 dac_p[7] *1366:B 0.0029361
11 dac_p[8] *1366:B 0.00309603
12 *94:16 *1366:B 2.14739e-05
*RES
1 *1364:ZN *1366:B 24.288 
*END

*D_NET *179 0.012795
*CONN
*I *1366:A2 I *D gf180mcu_fd_sc_mcu7t5v0__oai21_1
*I *1365:ZN O *D gf180mcu_fd_sc_mcu7t5v0__aoi221_2
*CAP
1 *1366:A2 0.00336223
2 *1365:ZN 0.00336223
3 *1366:A2 *349:I 6.10723e-05
4 *1366:A2 *438:I 0.00019118
5 *1366:A2 *1363:A1 0.000236019
6 *1366:A2 *1366:A1 2.47594e-05
7 *1366:A2 *1372:B 2.14739e-05
8 *1366:A2 *1404:A2 1.328e-05
9 *1366:A2 *1430:SETN 0.000278381
10 *1366:A2 *1454:CLK 0.000384468
11 *1366:A2 *1548:I 0.000104752
12 *1366:A2 *1564:I 0.000208417
13 *1366:A2 *206:14 0.000115624
14 *1366:A2 *206:43 8.43988e-05
15 *1366:A2 *218:8 0.000634707
16 *1366:A2 *218:41 0.000465206
17 *1366:A2 *229:51 3.22108e-05
18 *1366:A2 *229:72 0.000181002
19 *1366:A2 *280:31 9.00011e-05
20 *1366:A2 *296:34 7.96263e-06
21 *1366:A2 *302:10 0.000535807
22 *1366:A2 *302:18 0.00011012
23 *1363:B *1366:A2 0
24 *1397:A1 *1366:A2 2.65004e-06
25 *1429:D *1366:A2 0.000342563
26 *1510:I *1366:A2 0.00028161
27 *97:14 *1366:A2 3.29213e-05
28 *108:14 *1366:A2 0.000493752
29 *108:43 *1366:A2 0.000123433
30 *122:20 *1366:A2 0.000243386
31 *153:6 *1366:A2 0.000545367
32 *177:22 *1366:A2 0.000224001
*RES
1 *1365:ZN *1366:A2 43.688 
*END

*D_NET *180 0.0028992
*CONN
*I *1369:B I *D gf180mcu_fd_sc_mcu7t5v0__oai21_1
*I *1367:ZN O *D gf180mcu_fd_sc_mcu7t5v0__nand2_1
*CAP
1 *1369:B 0.000667958
2 *1367:ZN 0.000667958
3 *1369:B *1367:A2 4.17589e-06
4 *1369:B *1548:I 0.00108493
5 *1369:B *1571:I 2.2991e-06
6 *1369:B *248:65 0
7 *1369:B *296:34 0.000114168
8 *1369:B *342:30 0.00034836
9 *122:20 *1369:B 9.35542e-06
*RES
1 *1367:ZN *1369:B 24.24 
*END

*D_NET *181 0.0132305
*CONN
*I *1369:A2 I *D gf180mcu_fd_sc_mcu7t5v0__oai21_1
*I *1368:ZN O *D gf180mcu_fd_sc_mcu7t5v0__aoi211_2
*CAP
1 *1369:A2 0.00353515
2 *1368:ZN 0.00353515
3 *1369:A2 *1259:I 0.000184208
4 *1369:A2 *1290:A1 0.000145165
5 *1369:A2 *1290:A2 0.000136603
6 *1369:A2 *1377:A3 0.0010319
7 *1369:A2 *1407:B2 0.000111942
8 *1369:A2 *1462:RN 0
9 *1369:A2 *1499:I 2.92346e-05
10 *1369:A2 *1514:I 0.000454141
11 *1369:A2 *1522:I 2.89059e-05
12 *1369:A2 *1548:I 0
13 *1369:A2 *208:385 0.000107673
14 *1369:A2 *224:12 0.000108038
15 *1369:A2 *248:65 0.000126031
16 *1369:A2 *266:20 0.000325477
17 *1369:A2 *274:97 3.17547e-05
18 *1369:A2 *327:20 1.87523e-05
19 *1338:A2 *1369:A2 0.000544066
20 *1342:A2 *1369:A2 0.000553294
21 *1368:A1 *1369:A2 1.78817e-06
22 *1371:B *1369:A2 1.73106e-05
23 *1374:B2 *1369:A2 0.000156032
24 *1383:A1 *1369:A2 0.000342477
25 *1407:A1 *1369:A2 0.00157883
26 *1455:D *1369:A2 0.000126574
*RES
1 *1368:ZN *1369:A2 45.456 
*END

*D_NET *182 0.0106063
*CONN
*I *1372:B I *D gf180mcu_fd_sc_mcu7t5v0__oai21_1
*I *1370:ZN O *D gf180mcu_fd_sc_mcu7t5v0__nand2_1
*CAP
1 *1372:B 0.00188797
2 *1370:ZN 0.00188797
3 *1372:B *349:I 0.000543234
4 *1372:B *363:I 0.00019653
5 *1372:B *447:I 0.000466947
6 *1372:B *1287:A1 0.000189536
7 *1372:B *1364:A2 0.000203739
8 *1372:B *1370:A1 4.26091e-05
9 *1372:B *1379:A1 0.0016657
10 *1372:B *1564:I 0.00132353
11 *1372:B *1579:I 7.96736e-05
12 *1372:B *206:43 0.000201412
13 *1372:B *248:48 2.42397e-05
14 *1372:B *273:61 3.61782e-05
15 *1372:B *281:29 0.000776919
16 dac_p[3] *1372:B 0.000120438
17 dac_p[6] *1372:B 0.000194511
18 *1336:A1 *1372:B 0.000203739
19 *1360:B *1372:B 9.06465e-05
20 *1366:A2 *1372:B 2.14739e-05
21 *1373:A2 *1372:B 3.42651e-05
22 *122:20 *1372:B 0.00034446
23 *175:16 *1372:B 7.05729e-05
*RES
1 *1370:ZN *1372:B 39.112 
*END

*D_NET *183 0.0109538
*CONN
*I *1372:A2 I *D gf180mcu_fd_sc_mcu7t5v0__oai21_1
*I *1371:ZN O *D gf180mcu_fd_sc_mcu7t5v0__aoi211_2
*CAP
1 *1372:A2 0.00265433
2 *1371:ZN 0.00265433
3 *1372:A2 *348:I 0.000186453
4 *1372:A2 *430:I 0.000175822
5 *1372:A2 *1290:A2 6.83293e-05
6 *1372:A2 *1331:A1 0.000489998
7 *1372:A2 *1345:A2 9.35795e-05
8 *1372:A2 *1548:I 0.000163498
9 *1372:A2 *1551:I 0.000352357
10 *1372:A2 *231:50 0.000455555
11 *1372:A2 *274:47 0.000209896
12 *1372:A2 *274:81 0.000574326
13 *1372:A2 *280:72 0.000362422
14 *1372:A2 *304:12 0.00135837
15 *1372:A2 *342:30 0.000118787
16 *1292:B1 *1372:A2 4.78385e-05
17 *1407:A1 *1372:A2 0
18 *1469:I *1372:A2 0.000106877
19 *1502:I *1372:A2 6.05694e-06
20 *1562:I *1372:A2 0.000245653
21 *110:37 *1372:A2 0.000160936
22 *135:20 *1372:A2 0.000118644
23 *159:41 *1372:A2 0.000104102
24 *159:43 *1372:A2 0.000245653
*RES
1 *1371:ZN *1372:A2 41.088 
*END

*D_NET *184 0.00927108
*CONN
*I *1374:B1 I *D gf180mcu_fd_sc_mcu7t5v0__aoi22_1
*I *1373:ZN O *D gf180mcu_fd_sc_mcu7t5v0__aoi21_1
*CAP
1 *1374:B1 0.00342948
2 *1373:ZN 0.00342948
3 *1374:B1 *1361:A2 9.76253e-05
4 *1374:B1 *1549:I 2.64063e-05
5 *1374:B1 *233:18 0
6 *1374:B1 *244:39 0.000101557
7 *1374:B1 *273:10 0.000929656
8 *1374:B1 *289:134 3.47254e-05
9 *1374:B1 *298:14 0
10 *1374:B1 *301:10 6.67724e-05
11 *1360:B *1374:B1 0.0010406
12 *1426:D *1374:B1 9.23759e-05
13 *120:67 *1374:B1 1.48303e-05
14 *175:16 *1374:B1 7.5904e-06
*RES
1 *1373:ZN *1374:B1 45.096 
*END

*D_NET *185 0.00787453
*CONN
*I *1377:A2 I *D gf180mcu_fd_sc_mcu7t5v0__nor3_1
*I *1375:ZN O *D gf180mcu_fd_sc_mcu7t5v0__nor3_1
*CAP
1 *1377:A2 0.00133777
2 *1375:ZN 0.00133777
3 *1377:A2 *1288:B 0.00108973
4 *1377:A2 *1293:A1 0.000127431
5 *1377:A2 *1296:A1 0.000689739
6 *1377:A2 *1375:A1 4.24934e-05
7 *1377:A2 *1460:CLK 0.000112739
8 *1377:A2 *1542:I 3.93494e-05
9 *1377:A2 *1601:I 0.000889008
10 *1377:A2 *208:397 0.000536559
11 *1377:A2 *248:65 0.000372843
12 *1377:A2 *345:25 0.00054659
13 *1377:A1 *1377:A2 9.09864e-05
14 *4:30 *1377:A2 0.000661516
*RES
1 *1375:ZN *1377:A2 33.392 
*END

*D_NET *186 0.00384014
*CONN
*I *1377:A3 I *D gf180mcu_fd_sc_mcu7t5v0__nor3_1
*I *1376:ZN O *D gf180mcu_fd_sc_mcu7t5v0__aoi21_1
*CAP
1 *1377:A3 0.000758427
2 *1376:ZN 0.000758427
3 *1377:A3 *1290:A2 0.000349504
4 *1377:A3 *208:385 6.75646e-06
5 *1377:A3 *224:19 0.000111066
6 *1377:A3 *279:10 0.000463724
7 *1369:A2 *1377:A3 0.0010319
8 *1376:A1 *1377:A3 4.14291e-05
9 *1383:A3 *1377:A3 4.20169e-05
10 *1407:A1 *1377:A3 0.000267361
11 *1455:D *1377:A3 9.5197e-06
*RES
1 *1376:ZN *1377:A3 25.488 
*END

*D_NET *187 0.0158567
*CONN
*I *1379:A3 I *D gf180mcu_fd_sc_mcu7t5v0__nor3_1
*I *1378:ZN O *D gf180mcu_fd_sc_mcu7t5v0__nor2_1
*CAP
1 *1379:A3 0
2 *1378:ZN 0.0072345
3 *187:20 0.0072345
4 *187:20 *353:I 0
5 *187:20 *1271:A2 5.28819e-05
6 *187:20 *289:14 0.000187119
7 *134:24 *187:20 0.00114768
*RES
1 *1378:ZN *187:20 45.5535 
2 *187:20 *1379:A3 13.5 
*END

*D_NET *188 0.0061389
*CONN
*I *1382:A1 I *D gf180mcu_fd_sc_mcu7t5v0__nor2_1
*I *1380:ZN O *D gf180mcu_fd_sc_mcu7t5v0__nor2_1
*CAP
1 *1382:A1 0.000916815
2 *1380:ZN 0.000916815
3 *1382:A1 *1281:A1 1.26479e-05
4 *1382:A1 *1281:A3 0.000182219
5 *1382:A1 *1383:A2 0
6 *1382:A1 *1465:RN 3.61446e-05
7 *1382:A1 *1542:I 4.69809e-05
8 *1382:A1 *1553:I 0
9 *1382:A1 *288:32 0.000455575
10 *1382:A1 *307:18 8.21146e-06
11 *1380:A1 *1382:A1 8.70366e-05
12 *1462:D *1382:A1 0.00142969
13 *100:31 *1382:A1 0.000384048
14 *100:54 *1382:A1 0.000237084
15 *111:28 *1382:A1 0.00140172
16 *116:20 *1382:A1 2.39129e-05
*RES
1 *1380:ZN *1382:A1 19.504 
*END

*D_NET *189 0.00807192
*CONN
*I *1382:A2 I *D gf180mcu_fd_sc_mcu7t5v0__nor2_1
*I *1381:ZN O *D gf180mcu_fd_sc_mcu7t5v0__nor3_1
*CAP
1 *1382:A2 0.000626645
2 *1381:ZN 0.000626645
3 *1382:A2 *1460:RN 0.000718542
4 *1382:A2 *1569:I 0.00257342
5 *1382:A2 *307:18 0
6 cmp_rst *1382:A2 8.35178e-06
7 dac_n[7] *1382:A2 0
8 dac_n[8] *1382:A2 0.000180951
9 *1457:D *1382:A2 0.00255315
10 *1458:D *1382:A2 3.17517e-06
11 *100:16 *1382:A2 0.000781044
*RES
1 *1381:ZN *1382:A2 30.792 
*END

*D_NET *190 0.00177274
*CONN
*I *1384:B I *D gf180mcu_fd_sc_mcu7t5v0__oai21_1
*I *1383:ZN O *D gf180mcu_fd_sc_mcu7t5v0__nand3_1
*CAP
1 *1384:B 0.000471922
2 *1383:ZN 0.000471922
3 *1384:B *296:34 0
4 *1384:B *296:116 0.00016193
5 *1384:B *305:8 0.000245369
6 *1383:A1 *1384:B 7.96846e-05
7 *1384:A1 *1384:B 0.000312664
8 *121:24 *1384:B 2.92431e-05
*RES
1 *1383:ZN *1384:B 21.848 
*END

*D_NET *191 0.0417216
*CONN
*I *397:I I *D gf180mcu_fd_sc_mcu7t5v0__antenna
*I *398:I I *D gf180mcu_fd_sc_mcu7t5v0__antenna
*I *1396:A2 I *D gf180mcu_fd_sc_mcu7t5v0__nor2_1
*I *1395:ZN O *D gf180mcu_fd_sc_mcu7t5v0__nor2_1
*CAP
1 *397:I 0.000671875
2 *398:I 0.000887189
3 *1396:A2 0.000948628
4 *1395:ZN 0.00194617
5 *191:34 0.00942389
6 *191:20 0.0102061
7 *397:I *441:I 0.000263217
8 *397:I *1390:I0 0.000852595
9 *397:I *256:10 0.000919746
10 *398:I *414:I 0.000277629
11 *398:I *1252:I 3.57195e-05
12 *1396:A2 *1567:I 2.38656e-05
13 *1396:A2 *298:76 7.38209e-05
14 *1396:A2 *341:14 0.000502057
15 *191:20 *355:I 0
16 *191:20 *1314:A1 0.0011725
17 *191:20 *1324:A1 1.23221e-05
18 *191:20 *1385:I1 0.000623765
19 *191:20 *1386:I0 5.85255e-05
20 *191:20 *1387:I1 0.000162388
21 *191:20 *1418:CLK 0.000105685
22 *191:20 *1420:CLK 0.00104009
23 *191:20 *1438:RN 0.000727765
24 *191:20 *1440:RN 4.02644e-05
25 *191:20 *1496:I 0.00124388
26 *191:20 *1591:I 0
27 *191:20 *222:18 0.000631161
28 *191:20 *222:33 0.00113267
29 *191:20 *241:62 3.57634e-06
30 *191:20 *241:88 0.000189275
31 *191:20 *269:65 2.14802e-05
32 *191:20 *314:16 1.30498e-05
33 *191:20 *317:24 0.000366937
34 *191:20 *322:16 0.00046222
35 *191:20 *333:14 4.87618e-06
36 *191:34 *414:I 0.000215992
37 *191:34 *441:I 1.92932e-05
38 *191:34 *1391:I0 5.34672e-05
39 *191:34 *1393:I1 0.00241762
40 *191:34 *225:26 0.00063314
41 *191:34 *241:111 0.000633194
42 *191:34 *298:86 0
43 *191:34 *338:12 0.0003829
44 dac_n[6] *1396:A2 3.3698e-05
45 *1324:B *191:20 0.000237412
46 *1381:A3 *1396:A2 8.38714e-05
47 *1418:D *191:20 0.000428493
48 *1419:D *191:20 0
49 *1421:D *397:I 0.000299013
50 *1421:D *191:20 5.6979e-06
51 *1421:D *191:34 0.000171821
52 *1441:D *191:20 1.40331e-05
53 *1458:D *1396:A2 2.19671e-06
54 *1464:D *1396:A2 5.93448e-05
55 *4:30 *398:I 1.24662e-05
56 *86:16 *1396:A2 6.12849e-05
57 *100:16 *1396:A2 0.00066881
58 *126:28 *1396:A2 0.000242879
*RES
1 *1395:ZN *191:20 32.4 
2 *191:20 *191:34 40.5102 
3 *191:34 *1396:A2 22.73 
4 *191:34 *398:I 19.402 
5 *191:20 *397:I 15.552 
*END

*D_NET *192 0.0111435
*CONN
*I *1400:B1 I *D gf180mcu_fd_sc_mcu7t5v0__oai32_4
*I *1398:I1 I *D gf180mcu_fd_sc_mcu7t5v0__mux2_2
*I *1397:ZN O *D gf180mcu_fd_sc_mcu7t5v0__nor2_2
*CAP
1 *1400:B1 0
2 *1398:I1 0.00220746
3 *1397:ZN 0.00061236
4 *192:8 0.00281982
5 *1398:I1 *1264:I 1.40331e-05
6 *1398:I1 *1467:D 2.33885e-05
7 *1398:I1 *1467:CLK 0.00137339
8 *1398:I1 *1470:I 5.67138e-05
9 *1398:I1 *243:21 0.000256135
10 *1398:I1 *244:39 5.63044e-06
11 *1398:I1 *289:99 0
12 *1398:I1 *308:18 0.000265668
13 *1398:I1 *340:18 0.000200558
14 *1398:I1 *340:37 0.00169025
15 *192:8 *1428:CLK 0.000242041
16 *192:8 *206:14 1.89416e-05
17 *192:8 *218:41 2.14739e-05
18 *192:8 *290:129 0.00017298
19 *192:8 *290:151 9.76253e-05
20 *192:8 *340:37 0.000265539
21 dac_p[1] *1398:I1 0.000113027
22 *1311:A2 *1398:I1 3.4596e-05
23 *1311:A2 *192:8 6.91919e-05
24 *1354:B *1398:I1 6.99224e-05
25 *1398:S *1398:I1 9.03418e-05
26 *1402:A2 *192:8 5.35138e-05
27 *1427:D *1398:I1 0.000126406
28 *1447:D *1398:I1 0.000190714
29 *109:24 *1398:I1 3.62345e-05
30 *110:14 *192:8 1.5585e-05
*RES
1 *1397:ZN *192:8 9.076 
2 *192:8 *1398:I1 31.596 
3 *192:8 *1400:B1 4.5 
*END

*D_NET *193 0.000850509
*CONN
*I *1400:A3 I *D gf180mcu_fd_sc_mcu7t5v0__oai32_4
*I *1399:ZN O *D gf180mcu_fd_sc_mcu7t5v0__oai22_4
*CAP
1 *1400:A3 0.000266502
2 *1399:ZN 0.000266502
3 *1400:A3 *208:85 3.36851e-05
4 *1400:A3 *291:79 0.000101602
5 *1400:A3 *312:29 0
6 *1399:A1 *1400:A3 0.000182219
*RES
1 *1399:ZN *1400:A3 10.976 
*END

*D_NET *194 0.00195071
*CONN
*I *1402:A3 I *D gf180mcu_fd_sc_mcu7t5v0__nor3_1
*I *1401:ZN O *D gf180mcu_fd_sc_mcu7t5v0__aoi211_1
*CAP
1 *1402:A3 0.000471589
2 *1401:ZN 0.000471589
3 *1402:A3 *1407:B2 3.99976e-06
4 *1402:A3 *282:29 8.58333e-05
5 *1402:A3 *293:54 0.000173797
6 *1400:A1 *1402:A3 0
7 *108:14 *1402:A3 0.000402871
8 *108:27 *1402:A3 0.00034103
*RES
1 *1401:ZN *1402:A3 13.056 
*END

*D_NET *195 0.00690296
*CONN
*I *1404:A2 I *D gf180mcu_fd_sc_mcu7t5v0__oai21_1
*I *1402:ZN O *D gf180mcu_fd_sc_mcu7t5v0__nor3_1
*CAP
1 *1404:A2 0.000535755
2 *1402:ZN 0.000535755
3 *1404:A2 *1548:I 0.000484299
4 *1404:A2 *302:18 0.00033079
5 *1366:A2 *1404:A2 1.328e-05
6 *1397:A1 *1404:A2 0.00080691
7 *1401:A2 *1404:A2 0.000827003
8 *1402:A1 *1404:A2 0.000827003
9 *1429:D *1404:A2 0.00242678
10 *97:14 *1404:A2 0.000115388
*RES
1 *1402:ZN *1404:A2 27.984 
*END

*D_NET *196 0.00647947
*CONN
*I *1406:A1 I *D gf180mcu_fd_sc_mcu7t5v0__and2_1
*I *1404:B I *D gf180mcu_fd_sc_mcu7t5v0__oai21_1
*I *1403:ZN O *D gf180mcu_fd_sc_mcu7t5v0__oai211_1
*CAP
1 *1406:A1 0.000124728
2 *1404:B 0.000314932
3 *1403:ZN 0.000551678
4 *196:10 0.000991338
5 *1406:A1 *289:99 0.000316249
6 *196:10 *1405:A1 3.20438e-05
7 *196:10 *1407:B2 0.000103788
8 *196:10 *1430:CLK 5.36452e-06
9 *1336:A1 *1404:B 0.000146106
10 *1336:A1 *196:10 0.000190974
11 *1503:I *1404:B 0
12 *1510:I *1404:B 0.00017298
13 *96:14 *196:10 0.000293444
14 *97:8 *1404:B 4.40271e-05
15 *104:12 *1404:B 0.000325477
16 *110:14 *1406:A1 0
17 *118:14 *196:10 0.0011797
18 *120:67 *1404:B 0.000704872
19 *120:67 *196:10 0.00098177
*RES
1 *1403:ZN *196:10 15.656 
2 *196:10 *1404:B 12.328 
3 *196:10 *1406:A1 9.936 
*END

*D_NET *197 0.00151173
*CONN
*I *1406:A2 I *D gf180mcu_fd_sc_mcu7t5v0__and2_1
*I *1405:ZN O *D gf180mcu_fd_sc_mcu7t5v0__oai21_1
*CAP
1 *1406:A2 0.000106924
2 *1405:ZN 0.000106924
3 *1406:A2 *400:I 0.000603566
4 *1430:D *1406:A2 2.27998e-05
5 *1511:I *1406:A2 0.000671522
*RES
1 *1405:ZN *1406:A2 19.976 
*END

*D_NET *198 0.010085
*CONN
*I *1413:B1 I *D gf180mcu_fd_sc_mcu7t5v0__oai22_1
*I *1409:B1 I *D gf180mcu_fd_sc_mcu7t5v0__oai22_1
*I *1407:ZN O *D gf180mcu_fd_sc_mcu7t5v0__oai221_4
*CAP
1 *1413:B1 0
2 *1409:B1 0.000267566
3 *1407:ZN 0.00121582
4 *198:26 0.00148339
5 *1409:B1 *1409:B2 0.000511322
6 *1409:B1 *1412:B1 4.77439e-05
7 *1409:B1 *1413:B2 3.4596e-05
8 *198:26 *1300:B 0.00136085
9 *198:26 *1409:B2 0.000322619
10 *198:26 *1412:B1 1.30206e-06
11 *198:26 *1413:B2 0.000543503
12 *198:26 *1462:RN 0.000268946
13 *198:26 *1466:CLK 0.000696077
14 *198:26 *225:14 2.63101e-05
15 *198:26 *343:12 3.57634e-06
16 *1275:A1 *1409:B1 0.000237628
17 *1407:C *198:26 0.000208128
18 *1412:A2 *1409:B1 0.000240662
19 *1414:A2 *198:26 0.000340824
20 *1464:D *198:26 0.00016068
21 *123:52 *198:26 2.86395e-05
22 *127:12 *198:26 0.0020848
*RES
1 *1407:ZN *198:26 27.956 
2 *198:26 *1409:B1 16.308 
3 *198:26 *1413:B1 4.5 
*END

*D_NET *199 0.00251848
*CONN
*I *1409:B2 I *D gf180mcu_fd_sc_mcu7t5v0__oai22_1
*I *1408:ZN O *D gf180mcu_fd_sc_mcu7t5v0__oai31_1
*CAP
1 *1409:B2 0.000393884
2 *1408:ZN 0.000393884
3 *1409:B2 *1375:A3 2.27998e-05
4 *1409:B2 *296:116 7.46156e-05
5 *1408:B *1409:B2 0.000308609
6 *1409:B1 *1409:B2 0.000511322
7 *1413:A2 *1409:B2 1.43303e-05
8 *1414:A2 *1409:B2 0.000476417
9 *198:26 *1409:B2 0.000322619
*RES
1 *1408:ZN *1409:B2 22.16 
*END

*D_NET *200 0.00493124
*CONN
*I *1412:B1 I *D gf180mcu_fd_sc_mcu7t5v0__aoi22_1
*I *1410:ZN O *D gf180mcu_fd_sc_mcu7t5v0__nand4_1
*CAP
1 *1412:B1 0.000934021
2 *1410:ZN 0.000934021
3 *1412:B1 *1375:A2 3.53198e-05
4 *1412:B1 *1408:A1 0.000207999
5 *1412:B1 *1412:B2 5.972e-05
6 *1412:B1 *1413:B2 4.15943e-05
7 *1412:B1 *1488:I 0.0016611
8 *1412:B1 *1529:I 0.000575233
9 *1412:B1 *344:56 0.000409805
10 *1296:A2 *1412:B1 1.07369e-05
11 *1297:A1 *1412:B1 0
12 *1409:B1 *1412:B1 4.77439e-05
13 *1466:D *1412:B1 1.26446e-05
14 *198:26 *1412:B1 1.30206e-06
*RES
1 *1410:ZN *1412:B1 18.256 
*END

*D_NET *201 0.00263976
*CONN
*I *1412:B2 I *D gf180mcu_fd_sc_mcu7t5v0__aoi22_1
*I *1411:Z O *D gf180mcu_fd_sc_mcu7t5v0__xor2_1
*CAP
1 *1412:B2 0.000579776
2 *1411:Z 0.000579776
3 *1412:B2 *380:I 3.97439e-05
4 *1412:B2 *1413:B2 0.000539838
5 *1412:B2 *344:27 2.97547e-05
6 *1412:B2 *344:31 2.73939e-05
7 *1412:B2 *344:56 1.17531e-05
8 *1300:A2 *1412:B2 0.000491359
9 *1412:A2 *1412:B2 0.000175822
10 *1412:B1 *1412:B2 5.972e-05
11 *124:16 *1412:B2 0.00010482
*RES
1 *1411:Z *1412:B2 23.096 
*END

*D_NET *202 0.00354819
*CONN
*I *1413:B2 I *D gf180mcu_fd_sc_mcu7t5v0__oai22_1
*I *1412:ZN O *D gf180mcu_fd_sc_mcu7t5v0__aoi22_1
*CAP
1 *1413:B2 0.0010359
2 *1412:ZN 0.0010359
3 *1413:B2 *415:I 4.15652e-05
4 *1413:B2 *1408:A1 1.61584e-05
5 *1413:B2 *1412:A1 4.04589e-05
6 *1413:B2 *208:457 2.92431e-05
7 *1413:B2 *344:56 1.43763e-05
8 *1278:A2 *1413:B2 5.07147e-05
9 *1296:A2 *1413:B2 7.37907e-06
10 *1300:A1 *1413:B2 1.30095e-05
11 *1300:A2 *1413:B2 7.0919e-05
12 *1409:B1 *1413:B2 3.4596e-05
13 *1412:B1 *1413:B2 4.15943e-05
14 *1412:B2 *1413:B2 0.000539838
15 *127:12 *1413:B2 3.30227e-05
16 *198:26 *1413:B2 0.000543503
*RES
1 *1412:ZN *1413:B2 17.528 
*END

*D_NET *203 0.00515981
*CONN
*I *1415:A2 I *D gf180mcu_fd_sc_mcu7t5v0__aoi21_1
*I *1414:Z O *D gf180mcu_fd_sc_mcu7t5v0__or4_1
*CAP
1 *1415:A2 0.0010755
2 *1414:Z 0.0010755
3 *1415:A2 *1346:A1 0.000169615
4 *1415:A2 *1346:A2 0.000244915
5 *1415:A2 *1349:A2 1.5994e-05
6 *1415:A2 *1375:A3 1.59052e-05
7 *1415:A2 *1431:CLK 8.10026e-05
8 *1415:A2 *1466:CLK 9.86089e-05
9 *1415:A2 *211:52 4.16611e-05
10 *1415:A2 *310:16 0.000214643
11 *1415:A2 *344:27 4.17476e-05
12 *378:I *1415:A2 9.6457e-05
13 *1299:B *1415:A2 4.04477e-06
14 *1415:B *1415:A2 1.91879e-05
15 *1432:D *1415:A2 0.000337163
16 *1433:D *1415:A2 0.000459979
17 *1466:D *1415:A2 0.000323248
18 *101:16 *1415:A2 6.31514e-06
19 *123:65 *1415:A2 3.10787e-05
20 *131:12 *1415:A2 0.000758569
21 *166:12 *1415:A2 4.86708e-05
*RES
1 *1414:Z *1415:A2 27.152 
*END

*D_NET *204 0.00783418
*CONN
*I *1520:I I *D gf180mcu_fd_sc_mcu7t5v0__dlyb_1
*I *1329:A1 I *D gf180mcu_fd_sc_mcu7t5v0__nor4_4
*I *1427:Q O *D gf180mcu_fd_sc_mcu7t5v0__dffsnq_1
*CAP
1 *1520:I 0.000227071
2 *1329:A1 0.000792706
3 *1427:Q 0.000466626
4 *204:8 0.0014864
5 *1329:A1 *1480:I 8.32607e-05
6 *1329:A1 *208:123 0
7 *1329:A1 *229:51 0.0015079
8 *1520:I *1353:A1 0.00112191
9 *1520:I *229:51 0.00120342
10 *1321:A2 *1329:A1 6.18147e-05
11 *1350:B *1520:I 4.8346e-05
12 *1350:B *204:8 0.000420756
13 *97:60 *1329:A1 2.38773e-05
14 *140:12 *1520:I 0.000188231
15 *170:26 *1520:I 1.36398e-06
16 *175:16 *1520:I 5.13931e-05
17 *175:16 *204:8 0.000149102
*RES
1 *1427:Q *204:8 12.432 
2 *204:8 *1329:A1 15.76 
3 *204:8 *1520:I 13.368 
*END

*D_NET *205 0.0107722
*CONN
*I *1341:A2 I *D gf180mcu_fd_sc_mcu7t5v0__nor4_4
*I *1325:A2 I *D gf180mcu_fd_sc_mcu7t5v0__nor4_4
*I *1519:I I *D gf180mcu_fd_sc_mcu7t5v0__buf_2
*I *1428:Q O *D gf180mcu_fd_sc_mcu7t5v0__dffrnq_1
*CAP
1 *1341:A2 8.41938e-05
2 *1325:A2 0.000326705
3 *1519:I 0.000823334
4 *1428:Q 0
5 *205:25 0.00136384
6 *205:4 0.00177628
7 *1325:A2 *290:40 8.12317e-05
8 *1325:A2 *290:55 6.98602e-05
9 *1325:A2 *290:61 6.35093e-06
10 *1341:A2 *1329:A3 0.00056723
11 *1519:I *1477:I 4.74905e-05
12 *1519:I *240:23 2.20181e-05
13 *1519:I *312:29 0.000254815
14 *205:25 *1321:A1 0.000324069
15 *205:25 *1329:A3 5.16699e-05
16 *205:25 *243:67 0.000106771
17 *205:25 *272:59 0.000654493
18 *1350:B *1519:I 0.000971377
19 *1357:A2 *205:25 0.00137769
20 *170:26 *1341:A2 0.000117381
21 *170:26 *205:25 0.00174541
*RES
1 *1428:Q *205:4 4.5 
2 *205:4 *1519:I 10.636 
3 *205:4 *205:25 20.128 
4 *205:25 *1325:A2 15.268 
5 *205:25 *1341:A2 6.06 
*END

*D_NET *206 0.0236722
*CONN
*I *1341:A4 I *D gf180mcu_fd_sc_mcu7t5v0__nor4_4
*I *1272:A4 I *D gf180mcu_fd_sc_mcu7t5v0__or4_2
*I *1336:A2 I *D gf180mcu_fd_sc_mcu7t5v0__nor2_1
*I *1249:I I *D gf180mcu_fd_sc_mcu7t5v0__inv_2
*I *1271:A2 I *D gf180mcu_fd_sc_mcu7t5v0__nor2_1
*I *1429:Q O *D gf180mcu_fd_sc_mcu7t5v0__dffrnq_2
*CAP
1 *1341:A4 0.000430549
2 *1272:A4 2.22439e-05
3 *1336:A2 0
4 *1249:I 0.0005825
5 *1271:A2 0.00207435
6 *1429:Q 0
7 *206:43 0.00130135
8 *206:22 0.00361443
9 *206:14 0.00201602
10 *206:6 0.00160309
11 *1249:I *400:I 0.00100569
12 *1249:I *1548:I 0.000532692
13 *1249:I *296:34 0
14 *1272:A4 *280:10 0.000143956
15 *1272:A4 *292:47 0.00017691
16 *1341:A4 *1337:A1 0
17 *1341:A4 *290:129 4.69811e-05
18 *1341:A4 *290:188 1.56607e-05
19 *206:14 *233:18 0.000288459
20 *206:14 *290:129 0.000183964
21 *206:14 *302:27 2.72796e-06
22 *206:22 *1265:I 0.0011736
23 *206:22 *1270:A2 0.000597169
24 *206:22 *230:39 0
25 *206:22 *233:18 0.000125446
26 *206:22 *280:10 0.000473227
27 *206:22 *280:31 3.52286e-05
28 *206:22 *292:47 0.000533507
29 *206:43 *1379:A1 0.000810034
30 *206:43 *296:34 0.000248556
31 *1325:A4 *1341:A4 3.7384e-05
32 *1336:A1 *1249:I 0.00168025
33 *1336:A1 *206:43 5.13977e-05
34 *1357:B *1271:A2 0
35 *1363:B *1249:I 0.000162703
36 *1363:B *206:22 0.000142605
37 *1366:A2 *206:14 0.000115624
38 *1366:A2 *206:43 8.43988e-05
39 *1372:B *206:43 0.000201412
40 *1402:A2 *206:14 0.000743677
41 *1511:I *1249:I 0.000193905
42 *86:16 *1271:A2 0.000451419
43 *86:16 *206:43 0.000141863
44 *97:8 *1249:I 0.000454633
45 *104:12 *1249:I 0.000197944
46 *108:14 *206:14 0.000235761
47 *110:14 *206:14 0.000250983
48 *122:20 *206:43 0.000234186
49 *177:22 *1341:A4 0.000135099
50 *177:22 *206:14 4.67533e-05
51 *187:20 *1271:A2 5.28819e-05
52 *192:8 *206:14 1.89416e-05
*RES
1 *1429:Q *206:6 9 
2 *206:6 *206:14 18.568 
3 *206:14 *206:22 12.3 
4 *206:22 *1271:A2 24.836 
5 *206:22 *206:43 15.344 
6 *206:43 *1249:I 21.196 
7 *206:43 *1336:A2 4.5 
8 *206:14 *1272:A4 9.52 
9 *206:6 *1341:A4 11.704 
*END

*D_NET *207 0.00757305
*CONN
*I *1518:I I *D gf180mcu_fd_sc_mcu7t5v0__buf_2
*I *1329:A3 I *D gf180mcu_fd_sc_mcu7t5v0__nor4_4
*I *1430:Q O *D gf180mcu_fd_sc_mcu7t5v0__dffsnq_1
*CAP
1 *1518:I 0.000468099
2 *1329:A3 0.000194892
3 *1430:Q 0.000180038
4 *207:12 0.000843029
5 *1329:A3 *1321:A1 0.000341532
6 *1329:A3 *243:67 0.00114148
7 *1329:A3 *266:20 0.000415731
8 *1518:I *374:I 0.000320015
9 *1518:I *266:20 6.09457e-05
10 *1518:I *290:10 0.000413421
11 *1518:I *336:31 0.00114931
12 *207:12 *1331:A1 4.17589e-06
13 *207:12 *266:20 0.00017298
14 *1341:A2 *1329:A3 0.00056723
15 *1365:B1 *207:12 4.54528e-05
16 *1371:B *1329:A3 9.78174e-05
17 *1371:B *207:12 2.19883e-05
18 *108:43 *1518:I 0.000500858
19 *108:43 *207:12 0.000570581
20 *170:26 *1329:A3 4.55764e-06
21 *172:20 *207:12 5.39368e-06
22 *177:22 *1518:I 1.85258e-06
23 *205:25 *1329:A3 5.16699e-05
*RES
1 *1430:Q *207:12 15.58 
2 *207:12 *1329:A3 8.972 
3 *207:12 *1518:I 18.388 
*END

*D_NET *208 0.0806317
*CONN
*I *428:I I *D gf180mcu_fd_sc_mcu7t5v0__antenna
*I *415:I I *D gf180mcu_fd_sc_mcu7t5v0__antenna
*I *1472:I I *D gf180mcu_fd_sc_mcu7t5v0__clkbuf_8
*I *1484:I I *D gf180mcu_fd_sc_mcu7t5v0__clkbuf_8
*I *1471:I I *D gf180mcu_fd_sc_mcu7t5v0__clkbuf_8
*I *414:I I *D gf180mcu_fd_sc_mcu7t5v0__antenna
*I *427:I I *D gf180mcu_fd_sc_mcu7t5v0__antenna
*I *1485:I I *D gf180mcu_fd_sc_mcu7t5v0__clkbuf_8
*I *1482:I I *D gf180mcu_fd_sc_mcu7t5v0__clkbuf_8
*I *1473:I I *D gf180mcu_fd_sc_mcu7t5v0__clkbuf_8
*I *416:I I *D gf180mcu_fd_sc_mcu7t5v0__antenna
*I *419:I I *D gf180mcu_fd_sc_mcu7t5v0__antenna
*I *1476:I I *D gf180mcu_fd_sc_mcu7t5v0__clkbuf_8
*I *418:I I *D gf180mcu_fd_sc_mcu7t5v0__antenna
*I *1474:I I *D gf180mcu_fd_sc_mcu7t5v0__clkbuf_8
*I *417:I I *D gf180mcu_fd_sc_mcu7t5v0__antenna
*I *1475:I I *D gf180mcu_fd_sc_mcu7t5v0__clkbuf_8
*I *412:I I *D gf180mcu_fd_sc_mcu7t5v0__antenna
*I *413:I I *D gf180mcu_fd_sc_mcu7t5v0__antenna
*I *421:I I *D gf180mcu_fd_sc_mcu7t5v0__antenna
*I *426:I I *D gf180mcu_fd_sc_mcu7t5v0__antenna
*I *423:I I *D gf180mcu_fd_sc_mcu7t5v0__antenna
*I *1483:I I *D gf180mcu_fd_sc_mcu7t5v0__clkbuf_8
*I *424:I I *D gf180mcu_fd_sc_mcu7t5v0__antenna
*I *1481:I I *D gf180mcu_fd_sc_mcu7t5v0__clkbuf_8
*I *425:I I *D gf180mcu_fd_sc_mcu7t5v0__antenna
*I *1480:I I *D gf180mcu_fd_sc_mcu7t5v0__clkbuf_8
*I *420:I I *D gf180mcu_fd_sc_mcu7t5v0__antenna
*I *1477:I I *D gf180mcu_fd_sc_mcu7t5v0__clkbuf_8
*I *422:I I *D gf180mcu_fd_sc_mcu7t5v0__antenna
*I *1470:I I *D gf180mcu_fd_sc_mcu7t5v0__clkbuf_8
*I *1479:I I *D gf180mcu_fd_sc_mcu7t5v0__clkbuf_8
*I *1478:I I *D gf180mcu_fd_sc_mcu7t5v0__clkbuf_8
*I *1469:Z O *D gf180mcu_fd_sc_mcu7t5v0__clkbuf_16
*CAP
1 *428:I 0
2 *415:I 0.00132236
3 *1472:I 0
4 *1484:I 0.00038069
5 *1471:I 5.12243e-05
6 *414:I 0.0012861
7 *427:I 3.31617e-05
8 *1485:I 0
9 *1482:I 2.21249e-05
10 *1473:I 0.000323786
11 *416:I 0
12 *419:I 0.00114973
13 *1476:I 0.000252342
14 *418:I 5.06245e-05
15 *1474:I 0.000409629
16 *417:I 0.000129622
17 *1475:I 0.000552967
18 *412:I 0.000421493
19 *413:I 3.51208e-05
20 *421:I 0.000506986
21 *426:I 0
22 *423:I 0.000282425
23 *1483:I 0
24 *424:I 0.00111749
25 *1481:I 0.0002159
26 *425:I 0
27 *1480:I 0.000752758
28 *420:I 0
29 *1477:I 0.000247867
30 *422:I 4.50942e-05
31 *1470:I 0.000876101
32 *1479:I 0.000594679
33 *1478:I 0.000765271
34 *1469:Z 0.000873217
35 *208:457 0.00200086
36 *208:401 0.00151678
37 *208:399 0.000841566
38 *208:397 0.00167171
39 *208:385 0.00105463
40 *208:371 0.000777241
41 *208:303 0.000302967
42 *208:301 0.00158789
43 *208:279 0.00129999
44 *208:267 0.0013137
45 *208:265 0.00128235
46 *208:251 0.00183024
47 *208:249 0.000865959
48 *208:241 0.00135544
49 *208:229 0.000941728
50 *208:215 0.000843984
51 *208:205 0.000433994
52 *208:151 0.0016857
53 *208:147 0.000999202
54 *208:139 0.00115858
55 *208:135 0.00106985
56 *208:131 0.000710484
57 *208:123 0.00158014
58 *208:107 0.0024874
59 *208:87 0.000274493
60 *208:85 0.00118193
61 *208:69 0.00104557
62 *208:23 0.00167395
63 *208:21 0.00153959
64 *208:19 0.0019455
65 *208:15 0.00249918
66 *208:11 0.00142962
67 *412:I *429:I 5.9643e-07
68 *412:I *1344:A1 2.11094e-05
69 *412:I *270:10 0.000161521
70 *412:I *270:37 5.37178e-05
71 *412:I *274:155 6.51671e-05
72 *412:I *338:28 0
73 *414:I *1280:A1 0.000154455
74 *414:I *1281:A1 9.07424e-05
75 *414:I *1460:CLK 4.96182e-05
76 *414:I *239:97 0.000268915
77 *414:I *296:116 6.66942e-05
78 *415:I *1279:A2 6.31357e-05
79 *415:I *1411:A2 3.61058e-05
80 *415:I *211:52 3.74622e-05
81 *415:I *226:12 0.000313015
82 *415:I *310:16 6.88149e-05
83 *417:I *241:111 0.000165218
84 *418:I *276:203 0.000195176
85 *418:I *296:116 0.000226745
86 *419:I *354:I 1.38844e-05
87 *419:I *444:I 8.70988e-05
88 *419:I *1355:A1 2.04597e-06
89 *419:I *1355:A2 4.72575e-05
90 *419:I *1492:I 0
91 *419:I *248:71 0
92 *419:I *272:78 0
93 *419:I *272:186 6.71287e-05
94 *421:I *1323:A1 0.000361155
95 *421:I *334:14 7.08065e-05
96 *421:I *335:12 0
97 *422:I *1428:CLK 0
98 *422:I *1572:I 6.0892e-08
99 *423:I *267:18 4.67771e-06
100 *423:I *334:24 3.62248e-05
101 *424:I *404:I 1.16753e-05
102 *424:I *1314:A1 4.18133e-05
103 *424:I *1387:I1 0.000157226
104 *424:I *1496:I 4.11737e-05
105 *424:I *232:56 0.000248598
106 *424:I *241:88 1.39428e-05
107 *424:I *274:159 1.10019e-05
108 *424:I *289:14 0.000123951
109 *424:I *332:40 9.31265e-05
110 *427:I *231:16 1.55298e-05
111 *1470:I *1264:I 5.63044e-06
112 *1470:I *1361:A2 0
113 *1470:I *1373:B 2.00924e-05
114 *1470:I *1549:I 5.08914e-05
115 *1470:I *244:39 6.40834e-05
116 *1470:I *289:99 3.73779e-05
117 *1470:I *302:27 1.19584e-05
118 *1471:I *1465:RN 6.57403e-05
119 *1471:I *288:20 7.76395e-06
120 *1473:I *1530:I 2.02553e-05
121 *1473:I *274:155 0.00035269
122 *1474:I *1394:I0 0.000392466
123 *1474:I *1424:CLK 0
124 *1474:I *323:16 4.6833e-05
125 *1475:I *350:I 0
126 *1475:I *358:I 0.000114785
127 *1475:I *1342:B 0.000158682
128 *1475:I *274:114 0
129 *1475:I *339:12 0.00016136
130 *1476:I *1492:I 2.15296e-05
131 *1476:I *276:192 0
132 *1476:I *276:203 2.32895e-05
133 *1476:I *296:116 3.56338e-05
134 *1477:I *240:23 0
135 *1477:I *312:29 0.000208007
136 *1478:I *1449:RN 5.67861e-07
137 *1478:I *230:39 0.000247789
138 *1478:I *265:38 3.80047e-05
139 *1478:I *299:17 1.44223e-05
140 *1479:I *1270:A1 7.89589e-05
141 *1479:I *1548:I 0.000149306
142 *1479:I *289:99 0.00037183
143 *1480:I *1399:A2 8.55968e-05
144 *1480:I *229:51 0
145 *1480:I *291:18 5.51499e-05
146 *1481:I *1437:RN 0
147 *1481:I *289:14 9.37025e-05
148 *1481:I *332:40 1.91124e-05
149 *1482:I *1362:A2 3.42651e-05
150 *1482:I *1437:RN 1.19663e-05
151 *1484:I *1465:RN 3.73934e-05
152 *208:11 *229:72 0
153 *208:11 *229:83 0
154 *208:11 *276:14 0.00044096
155 *208:11 *276:20 3.63141e-05
156 *208:11 *343:12 5.59614e-05
157 *208:15 *1376:A2 0.000200253
158 *208:15 *1403:A1 1.45491e-05
159 *208:15 *1515:I 2.66506e-05
160 *208:15 *231:22 1.57158e-05
161 *208:15 *276:20 5.59277e-05
162 *208:15 *276:147 0.000135809
163 *208:15 *343:12 9.55346e-05
164 *208:19 *1376:A2 0
165 *208:19 *1405:A1 5.57171e-06
166 *208:19 *1428:CLK 0.000169006
167 *208:19 *1515:I 5.67861e-07
168 *208:19 *1572:I 6.66805e-05
169 *208:19 *276:46 0.000290005
170 *208:19 *293:22 0.000141514
171 *208:21 *230:39 0.000192195
172 *208:21 *272:59 0
173 *208:23 *230:39 0.000135593
174 *208:69 *230:39 0.000104666
175 *208:69 *272:59 0
176 *208:85 *1349:A1 0.000172129
177 *208:85 *1572:I 0.000267182
178 *208:85 *230:39 0.000507659
179 *208:85 *240:23 0
180 *208:85 *272:59 0
181 *208:85 *312:29 0.000190226
182 *208:87 *312:29 4.00191e-05
183 *208:107 *272:59 0.000267929
184 *208:123 *1399:A2 2.6155e-05
185 *208:123 *230:39 0.00052345
186 *208:123 *312:29 0
187 *208:123 *335:49 0.000134794
188 *208:131 *1362:A2 0.000159517
189 *208:131 *1437:RN 4.13954e-05
190 *208:147 *1318:B 9.35542e-06
191 *208:147 *1322:B 0
192 *208:147 *267:18 9.91778e-05
193 *208:151 *1318:B 9.01231e-05
194 *208:151 *267:18 0.000462946
195 *208:205 *1323:A1 0
196 *208:205 *241:88 7.60808e-05
197 *208:205 *334:24 0
198 *208:215 *241:88 0.000151966
199 *208:229 *241:88 9.76236e-05
200 *208:241 *450:I 0.000109435
201 *208:241 *241:88 0.000383927
202 *208:241 *241:111 0.0001656
203 *208:249 *1391:I0 9.37399e-05
204 *208:249 *274:155 0.000220592
205 *208:251 *1335:A1 0.000114084
206 *208:251 *1531:I 0.000179812
207 *208:251 *1532:I 4.18492e-07
208 *208:251 *270:10 7.06718e-05
209 *208:251 *274:155 0.000169316
210 *208:265 *1319:A1 0.000359824
211 *208:279 *350:I 0
212 *208:279 *1392:I0 1.42402e-05
213 *208:279 *1394:I0 0.000210381
214 *208:279 *339:10 0.000237322
215 *208:279 *339:12 0.000243532
216 *208:301 *1319:A1 0.000116045
217 *208:301 *272:78 0
218 *208:371 *1290:A2 0.000210864
219 *208:371 *1515:I 6.62358e-06
220 *208:371 *231:22 0
221 *208:371 *293:22 1.56603e-05
222 *208:385 *1290:A2 8.28681e-05
223 *208:385 *224:12 0.000114459
224 *208:385 *224:19 2.10463e-05
225 *208:397 *1601:I 0.000284834
226 *208:397 *231:16 0.000288047
227 *208:399 *376:I 2.06289e-05
228 *208:399 *1460:CLK 4.93324e-05
229 *208:399 *288:20 7.18431e-05
230 *208:401 *1460:CLK 2.85915e-05
231 *208:401 *288:20 3.37356e-05
232 *208:457 *1460:CLK 1.07174e-05
233 *208:457 *341:14 0
234 *208:457 *344:27 6.91116e-06
235 dac_p[1] *1470:I 1.19663e-05
236 dac_p[1] *1478:I 0.000108704
237 dac_p[1] *208:21 4.50738e-05
238 dac_p[1] *208:23 9.61273e-05
239 dac_p[5] *1478:I 9.33873e-05
240 *382:I *415:I 0.000235246
241 *385:I *419:I 0
242 *390:I *419:I 5.01413e-06
243 *398:I *414:I 0.000277629
244 *1282:A2 *415:I 6.52692e-05
245 *1297:A1 *415:I 0
246 *1299:B *415:I 0.000366301
247 *1300:A2 *208:457 9.45521e-05
248 *1313:A2 *1480:I 1.49783e-05
249 *1320:A2 *208:151 2.32529e-05
250 *1320:B *423:I 1.06067e-05
251 *1321:A2 *208:123 1.78817e-06
252 *1324:B *417:I 0.000165218
253 *1324:B *208:205 2.43345e-05
254 *1324:B *208:215 5.73024e-05
255 *1324:B *208:229 0.000266435
256 *1324:B *208:241 0.000899445
257 *1328:A2 *208:123 0
258 *1328:A2 *208:135 0.000359978
259 *1328:B *208:123 0
260 *1328:B *208:135 6.45326e-05
261 *1328:B *208:205 5.12047e-06
262 *1329:A1 *1480:I 8.32607e-05
263 *1329:A1 *208:123 0
264 *1329:A4 *208:123 0.000200552
265 *1343:A2 *208:11 1.14203e-05
266 *1359:B *208:123 0.000257085
267 *1359:B *208:135 0
268 *1363:B *1479:I 0.000147371
269 *1369:A2 *208:385 0.000107673
270 *1377:A2 *208:397 0.000536559
271 *1377:A3 *208:385 6.75646e-06
272 *1383:A3 *414:I 5.55757e-05
273 *1384:A1 *414:I 4.88715e-05
274 *1397:A2 *208:19 0
275 *1398:I1 *1470:I 5.67138e-05
276 *1400:A3 *208:85 3.36851e-05
277 *1401:A2 *422:I 7.60693e-05
278 *1401:A2 *208:19 4.97873e-06
279 *1402:A2 *208:19 0.000187624
280 *1403:B *208:11 8.34518e-05
281 *1405:B *208:19 3.69372e-05
282 *1413:B2 *415:I 4.15652e-05
283 *1413:B2 *208:457 2.92431e-05
284 *1422:D *1473:I 0.000201995
285 *1422:D *208:249 0.000254881
286 *1424:D *1474:I 0
287 *1429:D *208:19 0.000126016
288 *1432:D *415:I 9.08592e-05
289 *1439:D *423:I 2.47364e-05
290 *1439:D *208:135 0
291 *1444:D *412:I 2.45541e-05
292 *1462:D *1471:I 0
293 *1462:D *1484:I 0.000331823
294 *1463:D *1475:I 2.64776e-06
295 *1466:D *208:457 0.000290492
296 *1502:I *412:I 0.000150818
297 *1506:I *208:11 7.27642e-05
298 *1507:I *1480:I 3.73779e-05
299 *1511:I *208:19 4.54554e-05
300 *1519:I *1477:I 4.74905e-05
301 *1546:I *1480:I 9.16426e-05
302 *4:30 *427:I 3.95985e-05
303 *4:30 *208:371 5.3258e-05
304 *4:30 *208:385 0.000182165
305 *4:30 *208:397 0.000207419
306 *94:54 *208:107 0.000125499
307 *99:12 *415:I 3.57095e-05
308 *111:28 *414:I 7.46705e-05
309 *118:14 *208:11 3.48722e-05
310 *118:14 *208:19 1.37092e-05
311 *121:24 *415:I 3.28181e-05
312 *123:16 *208:15 8.32297e-05
313 *123:16 *208:19 2.46655e-06
314 *123:65 *415:I 0
315 *124:16 *414:I 5.12047e-06
316 *124:16 *208:399 0.000101126
317 *124:16 *208:401 5.53233e-05
318 *124:16 *208:457 5.54132e-05
319 *126:28 *414:I 1.07362e-05
320 *127:12 *415:I 0.000102967
321 *127:12 *208:457 6.35454e-05
322 *135:20 *1470:I 3.7384e-05
323 *159:41 *208:11 1.01859e-05
324 *168:35 *415:I 0.000234407
325 *172:20 *419:I 0.000137695
326 *172:20 *208:265 0.00109249
327 *172:20 *208:301 0.000584276
328 *172:57 *419:I 8.73475e-05
329 *191:34 *414:I 0.000215992
*RES
1 *1469:Z *208:11 15.032 
2 *208:11 *208:15 8.556 
3 *208:15 *208:19 14.172 
4 *208:19 *208:21 2.392 
5 *208:21 *208:23 2.184 
6 *208:23 *1478:I 13.784 
7 *208:23 *1479:I 14.096 
8 *208:21 *1470:I 14.72 
9 *208:19 *208:69 0.936 
10 *208:69 *422:I 9.52 
11 *208:69 *208:85 12.196 
12 *208:85 *208:87 0.312 
13 *208:87 *1477:I 6.268 
14 *208:87 *420:I 4.5 
15 *208:85 *208:107 11.184 
16 *208:107 *1480:I 9.388 
17 *208:107 *208:123 18.984 
18 *208:123 *425:I 4.5 
19 *208:123 *208:131 1.144 
20 *208:131 *208:135 8.348 
21 *208:135 *208:139 5.852 
22 *208:139 *208:147 12.12 
23 *208:147 *208:151 7.932 
24 *208:151 *1481:I 10.456 
25 *208:151 *424:I 16.8 
26 *208:147 *1483:I 4.5 
27 *208:139 *423:I 15.268 
28 *208:135 *208:205 6.58 
29 *208:205 *426:I 4.5 
30 *208:205 *208:215 1.664 
31 *208:215 *421:I 16.932 
32 *208:215 *208:229 1.976 
33 *208:229 *413:I 5.02 
34 *208:229 *208:241 11.676 
35 *208:241 *208:249 12.12 
36 *208:249 *208:251 4.056 
37 *208:251 *412:I 12.016 
38 *208:251 *208:265 12.092 
39 *208:265 *208:267 4.5 
40 *208:267 *1475:I 12.432 
41 *208:267 *208:279 5.304 
42 *208:279 *417:I 10.352 
43 *208:279 *1474:I 12.224 
44 *208:265 *208:301 4.264 
45 *208:301 *208:303 4.5 
46 *208:303 *418:I 10.352 
47 *208:303 *1476:I 10.664 
48 *208:301 *419:I 20.572 
49 *208:249 *416:I 9 
50 *208:241 *1473:I 11.808 
51 *208:131 *1482:I 4.812 
52 *208:15 *208:371 3.224 
53 *208:371 *1485:I 4.5 
54 *208:371 *208:385 11.912 
55 *208:385 *427:I 4.812 
56 *208:385 *208:397 11.052 
57 *208:397 *208:399 1.976 
58 *208:399 *208:401 1.144 
59 *208:401 *414:I 27.152 
60 *208:401 *1471:I 9.52 
61 *208:399 *1484:I 12.12 
62 *208:397 *208:457 8.66 
63 *208:457 *1472:I 4.5 
64 *208:457 *415:I 33.42 
65 *208:11 *428:I 9 
*END

*D_NET *209 0.011705
*CONN
*I *1426:CLK I *D gf180mcu_fd_sc_mcu7t5v0__dffrnq_1
*I *1456:CLK I *D gf180mcu_fd_sc_mcu7t5v0__dffrnq_1
*I *1448:CLK I *D gf180mcu_fd_sc_mcu7t5v0__dffrnq_1
*I *1459:CLK I *D gf180mcu_fd_sc_mcu7t5v0__dffsnq_1
*I *1470:Z O *D gf180mcu_fd_sc_mcu7t5v0__clkbuf_8
*CAP
1 *1426:CLK 0.00047382
2 *1456:CLK 0
3 *1448:CLK 0.000549225
4 *1459:CLK 0.000259957
5 *1470:Z 0.000527369
6 *209:25 0.000604093
7 *209:23 0.000569209
8 *209:6 0.000827847
9 *1426:CLK *1262:I 0.000473868
10 *1426:CLK *1304:A2 1.14787e-05
11 *1426:CLK *241:6 0.000140812
12 *1426:CLK *297:26 0
13 *1448:CLK *1262:I 0
14 *1448:CLK *1271:A1 0.00046761
15 *1448:CLK *1575:I 6.19436e-06
16 *1448:CLK *265:38 0.000140148
17 *1448:CLK *281:35 1.26446e-05
18 *1448:CLK *281:43 0
19 *1459:CLK *1304:A1 0.000225236
20 *1459:CLK *1573:I 0.000133648
21 *209:6 *1361:A1 1.25417e-05
22 *209:6 *1448:RN 4.78801e-05
23 *209:6 *1575:I 3.77559e-05
24 *209:6 *243:8 0.000137373
25 *209:23 *1271:A1 0.000740565
26 *209:25 *1271:A1 0.000388464
27 dac_p[4] *1448:CLK 0.00100234
28 *399:I *1459:CLK 6.70074e-05
29 *399:I *209:6 0.000151406
30 *1351:B *1448:CLK 0.000408338
31 *1354:B *1448:CLK 0.000936433
32 *1354:B *209:23 0.000704683
33 *1354:B *209:25 0.000356031
34 *1363:B *209:6 0.000603116
35 *1426:D *1426:CLK 5.80465e-05
36 *1426:D *1459:CLK 2.72796e-06
37 *1426:D *209:6 2.04597e-06
38 *1446:D *1448:CLK 5.96962e-05
39 *1447:D *1459:CLK 0.000522341
40 *1456:D *1426:CLK 3.4596e-05
41 *47:8 *1459:CLK 5.63044e-06
42 *47:20 *1448:CLK 0
43 *134:24 *1426:CLK 2.79802e-06
*RES
1 *1470:Z *209:6 8.764 
2 *209:6 *1459:CLK 16.412 
3 *209:6 *209:23 6.476 
4 *209:23 *209:25 1.144 
5 *209:25 *1448:CLK 16.28 
6 *209:25 *1456:CLK 9 
7 *209:23 *1426:CLK 12.328 
*END

*D_NET *210 0.00862073
*CONN
*I *1500:I I *D gf180mcu_fd_sc_mcu7t5v0__clkbuf_2
*I *1458:CLK I *D gf180mcu_fd_sc_mcu7t5v0__dffrnq_1
*I *1457:CLK I *D gf180mcu_fd_sc_mcu7t5v0__dffsnq_1
*I *1461:CLK I *D gf180mcu_fd_sc_mcu7t5v0__dffrnq_1
*I *1471:Z O *D gf180mcu_fd_sc_mcu7t5v0__clkbuf_8
*CAP
1 *1500:I 0
2 *1458:CLK 0.000437285
3 *1457:CLK 0
4 *1461:CLK 0.000101738
5 *1471:Z 1.17474e-05
6 *210:23 0.00148486
7 *210:17 0.00147243
8 *210:6 0.000538344
9 *210:6 *1460:CLK 4.07478e-05
10 *210:17 *1381:A1 0.000516131
11 *210:17 *288:32 0.000965181
12 *210:17 *288:34 0.000385232
13 *210:17 *341:14 4.44644e-06
14 *210:23 *1381:A1 0.000189208
15 *210:23 *1566:I 1.07369e-05
16 *210:23 *1567:I 0
17 dac_n[5] *210:23 6.22249e-05
18 dac_n[6] *1458:CLK 0.000183002
19 dac_n[6] *210:23 0.000595163
20 *1383:A1 *1461:CLK 0.000547145
21 *1383:A1 *210:6 7.84307e-05
22 *1383:A3 *1461:CLK 0.000191011
23 *1383:A3 *210:6 2.46831e-05
24 *1457:D *1458:CLK 0.0001475
25 *86:16 *210:17 2.1994e-05
26 *86:16 *210:23 0.000123153
27 *100:31 *210:17 0.000488331
*RES
1 *1471:Z *210:6 4.812 
2 *210:6 *1461:CLK 6.06 
3 *210:6 *210:17 9.804 
4 *210:17 *210:23 12.196 
5 *210:23 *1457:CLK 4.5 
6 *210:23 *1458:CLK 8.348 
7 *210:17 *1500:I 9 
*END

*D_NET *211 0.0135766
*CONN
*I *1431:CLK I *D gf180mcu_fd_sc_mcu7t5v0__dffrnq_1
*I *1432:CLK I *D gf180mcu_fd_sc_mcu7t5v0__dffrnq_1
*I *1488:I I *D gf180mcu_fd_sc_mcu7t5v0__clkbuf_2
*I *1460:CLK I *D gf180mcu_fd_sc_mcu7t5v0__dffrnq_1
*I *1472:Z O *D gf180mcu_fd_sc_mcu7t5v0__clkbuf_8
*CAP
1 *1431:CLK 0.000393499
2 *1432:CLK 0
3 *1488:I 0.000595995
4 *1460:CLK 0.00102382
5 *1472:Z 0.0019809
6 *211:52 0.000754588
7 *1431:CLK *1300:B 0.000204751
8 *1431:CLK *271:8 0.000393384
9 *1431:CLK *310:16 5.36991e-05
10 *1460:CLK *1280:A1 1.67849e-05
11 *1460:CLK *1601:I 0.000112739
12 *1460:CLK *288:20 0.000106109
13 *1460:CLK *288:26 8.63452e-05
14 *1460:CLK *288:32 0.000174473
15 *1460:CLK *341:14 0.000131618
16 *1488:I *1299:A2 4.67599e-05
17 *1488:I *1375:A2 0.000182119
18 *1488:I *1375:A3 0.000254586
19 *1488:I *1408:A2 0.000244005
20 *1488:I *1410:A2 0.000105623
21 *1488:I *1529:I 0.000729802
22 *211:52 *1300:B 0.000464807
23 *211:52 *225:14 0
24 *211:52 *225:20 6.06504e-06
25 *414:I *1460:CLK 4.96182e-05
26 *415:I *211:52 3.74622e-05
27 *1273:A2 *1460:CLK 1.28651e-05
28 *1299:B *211:52 0.000251178
29 *1377:A2 *1460:CLK 0.000112739
30 *1383:A1 *1460:CLK 0.000149829
31 *1383:A3 *1460:CLK 0.000465544
32 *1408:A3 *1488:I 0.000118934
33 *1410:A3 *1488:I 0.000771936
34 *1412:B1 *1488:I 0.0016611
35 *1415:A2 *1431:CLK 8.10026e-05
36 *1415:A2 *211:52 4.16611e-05
37 *1466:D *1488:I 0.000130726
38 *1466:D *211:52 0.000806574
39 *100:31 *1460:CLK 0.000682792
40 *123:65 *211:52 1.07369e-05
41 *208:399 *1460:CLK 4.93324e-05
42 *208:401 *1460:CLK 2.85915e-05
43 *208:457 *1460:CLK 1.07174e-05
44 *210:6 *1460:CLK 4.07478e-05
*RES
1 *1472:Z *1460:CLK 26.424 
2 *1472:Z *1488:I 18.048 
3 *1472:Z *211:52 17.244 
4 *211:52 *1432:CLK 4.5 
5 *211:52 *1431:CLK 7.828 
*END

*D_NET *212 0.0168881
*CONN
*I *1441:CLK I *D gf180mcu_fd_sc_mcu7t5v0__dffrnq_1
*I *1489:I I *D gf180mcu_fd_sc_mcu7t5v0__clkbuf_2
*I *1443:CLK I *D gf180mcu_fd_sc_mcu7t5v0__dffrnq_1
*I *1425:CLK I *D gf180mcu_fd_sc_mcu7t5v0__dffrnq_1
*I *1421:CLK I *D gf180mcu_fd_sc_mcu7t5v0__dffrnq_1
*I *1473:Z O *D gf180mcu_fd_sc_mcu7t5v0__clkbuf_8
*CAP
1 *1441:CLK 0.000434352
2 *1489:I 0.000159577
3 *1443:CLK 0.000762347
4 *1425:CLK 0
5 *1421:CLK 9.17667e-05
6 *1473:Z 0.000434352
7 *212:28 0.00122815
8 *212:13 0.000628378
9 *212:4 0.000413921
10 *1421:CLK *322:16 0.000164875
11 *1441:CLK *355:I 0.000689673
12 *1441:CLK *1558:I 0.000325088
13 *1441:CLK *322:16 4.51672e-06
14 *1443:CLK *350:I 0.00154241
15 *1443:CLK *1340:A1 0.000119171
16 *1443:CLK *213:21 0.000199969
17 *1443:CLK *248:89 0
18 *1443:CLK *276:192 0.00146355
19 *1489:I *1323:A1 7.46936e-05
20 *1489:I *339:10 0.000829116
21 *212:13 *361:I 1.20974e-05
22 *212:13 *1422:CLK 0.00102214
23 *212:13 *1442:RN 0.000394532
24 *212:13 *322:16 0.000226004
25 *212:28 *350:I 0.000160438
26 *212:28 *1422:CLK 0.000711434
27 *212:28 *1442:RN 0.000676838
28 *212:28 *213:8 6.30221e-05
29 *212:28 *213:21 0.000874191
30 *212:28 *241:111 5.65061e-06
31 *212:28 *339:10 0.000169331
32 *1324:B *1421:CLK 0.000473187
33 *1324:B *212:13 0.000799825
34 *1340:A2 *1443:CLK 0.000476175
35 *1344:B *1443:CLK 5.37778e-05
36 *1421:D *1441:CLK 5.1403e-05
37 *1422:D *1441:CLK 0.000113027
38 *1441:D *1441:CLK 2.81522e-06
39 *1443:D *1443:CLK 7.6161e-06
40 *146:30 *1489:I 0.000849438
41 *146:30 *212:13 1.98185e-06
42 *146:30 *212:28 0.000177246
*RES
1 *1473:Z *212:4 4.5 
2 *212:4 *1421:CLK 5.852 
3 *212:4 *212:13 4.68 
4 *212:13 *1425:CLK 4.5 
5 *212:13 *212:28 14.096 
6 *212:28 *1443:CLK 22.028 
7 *212:28 *1489:I 7.516 
8 *1473:Z *1441:CLK 12.848 
*END

*D_NET *213 0.00761937
*CONN
*I *1423:CLK I *D gf180mcu_fd_sc_mcu7t5v0__dffrnq_1
*I *1490:I I *D gf180mcu_fd_sc_mcu7t5v0__clkbuf_2
*I *1442:CLK I *D gf180mcu_fd_sc_mcu7t5v0__dffrnq_1
*I *1422:CLK I *D gf180mcu_fd_sc_mcu7t5v0__dffrnq_1
*I *1474:Z O *D gf180mcu_fd_sc_mcu7t5v0__clkbuf_8
*CAP
1 *1423:CLK 0
2 *1490:I 0.000136702
3 *1442:CLK 2.7268e-05
4 *1422:CLK 0.000345309
5 *1474:Z 0.000223711
6 *213:21 0.000950755
7 *213:8 0.00131779
8 *213:6 0.000409403
9 *1422:CLK *1334:A1 0.000151334
10 *1422:CLK *322:16 0.000671923
11 *1442:CLK *276:192 3.93698e-05
12 *1442:CLK *298:106 7.60693e-05
13 *1490:I *276:192 2.48024e-05
14 *1490:I *298:106 8.13929e-05
15 *213:6 *241:111 5.04839e-05
16 *213:8 *241:111 3.44314e-05
17 *213:21 *350:I 6.77125e-06
18 *213:21 *451:I 8.58459e-05
19 *213:21 *248:89 0
20 *213:21 *337:29 0.000115253
21 *1443:CLK *213:21 0.000199969
22 *212:13 *1422:CLK 0.00102214
23 *212:28 *1422:CLK 0.000711434
24 *212:28 *213:8 6.30221e-05
25 *212:28 *213:21 0.000874191
*RES
1 *1474:Z *213:6 5.852 
2 *213:6 *213:8 1.144 
3 *213:8 *1422:CLK 9.388 
4 *213:8 *213:21 14.928 
5 *213:21 *1442:CLK 5.02 
6 *213:21 *1490:I 5.54 
7 *213:6 *1423:CLK 4.5 
*END

*D_NET *214 0.00961438
*CONN
*I *1433:CLK I *D gf180mcu_fd_sc_mcu7t5v0__dffrnq_1
*I *1434:CLK I *D gf180mcu_fd_sc_mcu7t5v0__dffrnq_1
*I *1491:I I *D gf180mcu_fd_sc_mcu7t5v0__clkbuf_2
*I *1466:CLK I *D gf180mcu_fd_sc_mcu7t5v0__dffrnq_1
*I *1475:Z O *D gf180mcu_fd_sc_mcu7t5v0__clkbuf_8
*CAP
1 *1433:CLK 0.000357785
2 *1434:CLK 0
3 *1491:I 0
4 *1466:CLK 0.000755107
5 *1475:Z 0.000894382
6 *214:41 0.000825282
7 *214:26 0.000606772
8 *1433:CLK *1274:A1 3.9438e-05
9 *1466:CLK *380:I 0.000116881
10 *1466:CLK *1375:A3 4.60139e-05
11 *1466:CLK *1601:I 0.00166443
12 *1466:CLK *272:125 2.04137e-05
13 *1466:CLK *344:27 1.34754e-05
14 *214:26 *1375:A3 0.000178303
15 *214:41 *1375:A3 0.000194004
16 *214:41 *225:14 0.000679715
17 *214:41 *226:12 0.000686725
18 *1298:A1 *1466:CLK 0.000182219
19 *1301:A2 *1466:CLK 0.000133132
20 *1301:B1 *1433:CLK 0.000950547
21 *1301:B1 *214:41 0.000168198
22 *1407:C *1466:CLK 1.07369e-05
23 *1415:A2 *1466:CLK 9.86089e-05
24 *1433:D *1433:CLK 2.61754e-05
25 *1434:D *1433:CLK 1.78817e-06
26 *1434:D *214:41 3.97562e-05
27 *123:45 *1466:CLK 6.18264e-05
28 *123:52 *1466:CLK 2.19883e-05
29 *170:26 *214:26 6.36863e-05
30 *170:26 *214:41 8.09109e-05
31 *198:26 *1466:CLK 0.000696077
*RES
1 *1475:Z *1466:CLK 25.592 
2 *1475:Z *214:26 5.852 
3 *214:26 *1491:I 4.5 
4 *214:26 *214:41 14.096 
5 *214:41 *1434:CLK 4.5 
6 *214:41 *1433:CLK 7.828 
*END

*D_NET *215 0.00816908
*CONN
*I *1424:CLK I *D gf180mcu_fd_sc_mcu7t5v0__dffrnq_1
*I *1492:I I *D gf180mcu_fd_sc_mcu7t5v0__clkbuf_2
*I *1463:CLK I *D gf180mcu_fd_sc_mcu7t5v0__dffrnq_1
*I *1444:CLK I *D gf180mcu_fd_sc_mcu7t5v0__dffrnq_1
*I *1476:Z O *D gf180mcu_fd_sc_mcu7t5v0__clkbuf_8
*CAP
1 *1424:CLK 0.000778421
2 *1492:I 0.000392535
3 *1463:CLK 0
4 *1444:CLK 0.00122973
5 *1476:Z 6.3867e-05
6 *215:29 0.000392535
7 *215:10 0.00146059
8 *215:8 0.00107314
9 *1424:CLK *1393:S 0
10 *1424:CLK *339:10 3.15668e-05
11 *1444:CLK *358:I 0.000471397
12 *1444:CLK *1342:B 0.000135924
13 *1444:CLK *276:192 3.71885e-05
14 *1444:CLK *339:12 2.7435e-05
15 *1492:I *367:I 2.01852e-05
16 *1492:I *1393:S 5.47431e-06
17 *215:8 *1393:S 0.000484718
18 *215:10 *339:10 1.57354e-05
19 *215:10 *339:12 5.87367e-06
20 *419:I *1492:I 0
21 *1343:A2 *1444:CLK 0.00101994
22 *1344:B *1444:CLK 3.5919e-05
23 *1444:D *1444:CLK 7.5959e-06
24 *1463:D *1444:CLK 0.000333288
25 *1463:D *1492:I 2.81522e-06
26 *1474:I *1424:CLK 0
27 *1476:I *1492:I 2.15296e-05
28 *146:30 *1424:CLK 2.52646e-05
29 *146:30 *1444:CLK 7.63455e-05
30 *146:30 *215:10 2.00702e-05
*RES
1 *1476:Z *215:8 10.352 
2 *215:8 *215:10 1.144 
3 *215:10 *1444:CLK 19.088 
4 *215:10 *215:29 4.5 
5 *215:29 *1463:CLK 4.5 
6 *215:29 *1492:I 7.412 
7 *215:8 *1424:CLK 12.848 
*END

*D_NET *216 0.00800496
*CONN
*I *1467:CLK I *D gf180mcu_fd_sc_mcu7t5v0__dffrnq_1
*I *1427:CLK I *D gf180mcu_fd_sc_mcu7t5v0__dffsnq_1
*I *1447:CLK I *D gf180mcu_fd_sc_mcu7t5v0__dffrnq_1
*I *1486:I I *D gf180mcu_fd_sc_mcu7t5v0__clkbuf_2
*I *1477:Z O *D gf180mcu_fd_sc_mcu7t5v0__clkbuf_8
*CAP
1 *1467:CLK 0.000244304
2 *1427:CLK 0
3 *1447:CLK 0.000351956
4 *1486:I 0.000626174
5 *1477:Z 0.000201744
6 *216:21 0.000656088
7 *216:8 0.000887746
8 *1447:CLK *269:10 0.000355082
9 *1447:CLK *340:18 0.000256509
10 *1447:CLK *340:37 0.000155419
11 *1398:I1 *1467:CLK 0.00137339
12 *1398:S *1486:I 2.25929e-05
13 *1400:A1 *1486:I 0.000674523
14 *1400:A1 *216:8 0.000449889
15 *1427:D *1467:CLK 0.00118176
16 *1427:D *1486:I 3.22108e-05
17 *1445:D *1486:I 6.12766e-05
18 *94:37 *1486:I 1.2936e-05
19 *94:37 *216:8 1.96507e-05
20 *168:22 *216:21 0.000342968
21 *175:16 *216:21 9.87489e-05
*RES
1 *1477:Z *216:8 6.372 
2 *216:8 *1486:I 7.516 
3 *216:8 *216:21 11.6 
4 *216:21 *1447:CLK 7.828 
5 *216:21 *1427:CLK 4.5 
6 *1486:I *1467:CLK 13.056 
*END

*D_NET *217 0.00655353
*CONN
*I *1487:I I *D gf180mcu_fd_sc_mcu7t5v0__clkbuf_2
*I *1450:CLK I *D gf180mcu_fd_sc_mcu7t5v0__dffrnq_1
*I *1449:CLK I *D gf180mcu_fd_sc_mcu7t5v0__dffrnq_1
*I *1451:CLK I *D gf180mcu_fd_sc_mcu7t5v0__dffrnq_1
*I *1478:Z O *D gf180mcu_fd_sc_mcu7t5v0__clkbuf_8
*CAP
1 *1487:I 0.000391354
2 *1450:CLK 0
3 *1449:CLK 0.0006234
4 *1451:CLK 9.33818e-05
5 *1478:Z 0
6 *217:17 0.00044487
7 *217:4 0.000306205
8 *1449:CLK *1360:A1 5.29134e-05
9 *1449:CLK *1579:I 0.000185204
10 *1449:CLK *273:61 1.59949e-05
11 *1449:CLK *281:29 0
12 *1451:CLK *247:24 0.000337172
13 *1451:CLK *273:61 1.68703e-05
14 *1487:I *391:I 5.69188e-06
15 *1487:I *1246:I 0.00011329
16 *1487:I *1579:I 0.000408707
17 *1487:I *265:38 0.000191726
18 *1487:I *297:26 0.000404614
19 *217:17 *273:61 0.000158231
20 dac_p[3] *1487:I 0.000264104
21 dac_p[4] *1449:CLK 4.93216e-05
22 dac_p[4] *1487:I 0.00039949
23 dac_p[7] *1449:CLK 0.00105056
24 dac_p[7] *1451:CLK 0.000497696
25 dac_p[7] *217:17 0.000122667
26 *359:I *1487:I 0.000187176
27 *1291:A2 *1487:I 0.00010929
28 *1360:B *1449:CLK 0.000104393
29 *175:16 *1487:I 1.92086e-05
*RES
1 *1478:Z *217:4 4.5 
2 *217:4 *1451:CLK 6.372 
3 *217:4 *217:17 2.288 
4 *217:17 *1449:CLK 7.516 
5 *217:17 *1450:CLK 4.5 
6 *1449:CLK *1487:I 23.096 
*END

*D_NET *218 0.00926694
*CONN
*I *1429:CLK I *D gf180mcu_fd_sc_mcu7t5v0__dffrnq_2
*I *1428:CLK I *D gf180mcu_fd_sc_mcu7t5v0__dffrnq_1
*I *1493:I I *D gf180mcu_fd_sc_mcu7t5v0__clkbuf_2
*I *1454:CLK I *D gf180mcu_fd_sc_mcu7t5v0__dffrnq_1
*I *1479:Z O *D gf180mcu_fd_sc_mcu7t5v0__clkbuf_8
*CAP
1 *1429:CLK 0
2 *1428:CLK 0.000582859
3 *1493:I 0.000120175
4 *1454:CLK 0.000249804
5 *1479:Z 0.000205174
6 *218:41 0.000663687
7 *218:8 0.000494324
8 *1428:CLK *1572:I 0.000245726
9 *1428:CLK *340:37 0.00130777
10 *1454:CLK *280:31 6.54575e-05
11 *1454:CLK *299:8 0.000383933
12 *1493:I *1265:I 0.000277832
13 *1493:I *1548:I 0.00116646
14 *1493:I *246:14 0.000121945
15 *1493:I *299:17 2.11015e-05
16 *218:8 *280:31 0.000114902
17 *422:I *1428:CLK 0
18 *1363:B *1454:CLK 6.61468e-06
19 *1363:B *1493:I 0.000549595
20 *1366:A2 *1454:CLK 0.000384468
21 *1366:A2 *218:8 0.000634707
22 *1366:A2 *218:41 0.000465206
23 *1401:A2 *1428:CLK 0
24 *1402:A2 *1428:CLK 0.000111066
25 *1402:A2 *218:41 0.000103788
26 *1428:D *1428:CLK 2.95866e-05
27 *1503:I *1454:CLK 6.30369e-05
28 *108:14 *218:41 0.000465206
29 *192:8 *1428:CLK 0.000242041
30 *192:8 *218:41 2.14739e-05
31 *208:19 *1428:CLK 0.000169006
*RES
1 *1479:Z *218:8 10.768 
2 *218:8 *1454:CLK 11.496 
3 *218:8 *1493:I 12.224 
4 *1479:Z *218:41 15.164 
5 *218:41 *1428:CLK 10.428 
6 *218:41 *1429:CLK 4.5 
*END

*D_NET *219 0.0151351
*CONN
*I *1437:CLK I *D gf180mcu_fd_sc_mcu7t5v0__dffrnq_1
*I *1494:I I *D gf180mcu_fd_sc_mcu7t5v0__clkbuf_2
*I *1436:CLK I *D gf180mcu_fd_sc_mcu7t5v0__dffrnq_1
*I *1445:CLK I *D gf180mcu_fd_sc_mcu7t5v0__dffrnq_1
*I *1446:CLK I *D gf180mcu_fd_sc_mcu7t5v0__dffrnq_1
*I *1480:Z O *D gf180mcu_fd_sc_mcu7t5v0__clkbuf_8
*CAP
1 *1437:CLK 5.54057e-05
2 *1494:I 0.000583939
3 *1436:CLK 0
4 *1445:CLK 0.000187818
5 *1446:CLK 0
6 *1480:Z 0.000554882
7 *219:18 0.000621237
8 *219:12 0.000467253
9 *219:10 0.00111725
10 *1437:CLK *1312:A2 0.00046846
11 *1437:CLK *277:63 0.00046846
12 *1445:CLK *1271:A1 0.000349626
13 *1445:CLK *290:151 0.000678463
14 *1494:I *1347:C 2.20235e-05
15 *1494:I *1467:RN 0
16 *1494:I *1592:I 0
17 *219:10 *1350:C 0.000841412
18 *219:10 *1353:C 0.000168888
19 *219:10 *241:62 0.000336402
20 *219:10 *243:36 4.69556e-05
21 *219:10 *243:67 4.56385e-06
22 *219:10 *277:63 0
23 *219:12 *1350:C 0.000295598
24 *219:18 *402:I 0.000115388
25 *219:18 *1271:A1 3.4596e-05
26 *219:18 *1304:A1 0.000405179
27 *219:18 *1350:C 0.000512446
28 *219:18 *276:46 5.23919e-05
29 *219:18 *340:18 0.00084259
30 *1347:B *219:10 0.00150603
31 *1436:D *1494:I 3.4596e-05
32 *1436:D *219:10 9.96253e-05
33 *1436:D *219:12 0.000330762
34 *1436:D *219:18 0.00254798
35 *1445:D *1445:CLK 0.000798161
36 *1445:D *219:18 0.000533063
37 *136:32 *1494:I 5.36847e-05
*RES
1 *1480:Z *219:10 15.656 
2 *219:10 *219:12 0.936 
3 *219:12 *219:18 13.028 
4 *219:18 *1446:CLK 4.5 
5 *219:18 *1445:CLK 7.516 
6 *219:12 *1436:CLK 9 
7 *219:10 *1494:I 12.016 
8 *1480:Z *1437:CLK 10.352 
*END

*D_NET *220 0.00879358
*CONN
*I *1495:I I *D gf180mcu_fd_sc_mcu7t5v0__clkbuf_2
*I *1416:CLK I *D gf180mcu_fd_sc_mcu7t5v0__dffrnq_1
*I *1435:CLK I *D gf180mcu_fd_sc_mcu7t5v0__dffrnq_1
*I *1417:CLK I *D gf180mcu_fd_sc_mcu7t5v0__dffrnq_1
*I *1481:Z O *D gf180mcu_fd_sc_mcu7t5v0__clkbuf_8
*CAP
1 *1495:I 0.000368029
2 *1416:CLK 0.000137286
3 *1435:CLK 0
4 *1417:CLK 0.000488959
5 *1481:Z 0.000117265
6 *220:17 0.000444058
7 *220:6 0.000544966
8 *1416:CLK *1386:S 0.000111615
9 *1416:CLK *269:65 0.000557671
10 *1416:CLK *289:14 0.000202476
11 *1495:I *1313:B 1.07369e-05
12 *1495:I *1327:A1 1.34007e-05
13 *220:6 *1436:RN 0.000101448
14 *220:6 *1437:RN 0.000559573
15 *220:17 *353:I 2.46957e-05
16 *220:17 *1386:S 0.000215439
17 *220:17 *1436:RN 1.41447e-05
18 *220:17 *241:62 2.35016e-05
19 *1303:A2 *1417:CLK 3.4596e-05
20 *1303:A2 *1495:I 5.28406e-05
21 *1306:A1 *1416:CLK 0.000342104
22 *1306:A1 *1417:CLK 0.0010592
23 *1306:A1 *220:6 0.000113027
24 *1306:A1 *220:17 0.00122854
25 *132:16 *1417:CLK 0.0010592
26 *132:16 *220:6 0.000968805
*RES
1 *1481:Z *220:6 7.308 
2 *220:6 *1417:CLK 7.516 
3 *220:6 *220:17 8.14 
4 *220:17 *1435:CLK 9 
5 *220:17 *1416:CLK 11.496 
6 *1417:CLK *1495:I 11.288 
*END

*D_NET *221 0.00886045
*CONN
*I *1496:I I *D gf180mcu_fd_sc_mcu7t5v0__clkbuf_2
*I *1440:CLK I *D gf180mcu_fd_sc_mcu7t5v0__dffrnq_1
*I *1439:CLK I *D gf180mcu_fd_sc_mcu7t5v0__dffrnq_1
*I *1438:CLK I *D gf180mcu_fd_sc_mcu7t5v0__dffrnq_1
*I *1482:Z O *D gf180mcu_fd_sc_mcu7t5v0__clkbuf_8
*CAP
1 *1496:I 0.00130815
2 *1440:CLK 0.000353098
3 *1439:CLK 0
4 *1438:CLK 0.00013441
5 *1482:Z 0.00130815
6 *221:13 0.000490919
7 *221:4 0.000272231
8 *1438:CLK *1437:RN 0.000249521
9 *1440:CLK *1437:RN 0.000409221
10 *1496:I *1314:A1 0.00011246
11 *1496:I *1387:S 0.000140071
12 *1496:I *1497:I 6.17392e-05
13 *1496:I *232:56 0
14 *1496:I *267:18 0.000616445
15 *1496:I *333:14 7.19283e-05
16 *1496:I *334:24 0.000137291
17 *221:13 *1437:RN 0.000170254
18 *424:I *1496:I 4.11737e-05
19 *1328:A2 *1438:CLK 1.78817e-06
20 *1328:A2 *1440:CLK 4.34518e-05
21 *1328:A2 *221:13 5.15657e-05
22 *1418:D *1496:I 0.000428493
23 *1438:D *1438:CLK 4.07478e-05
24 *1438:D *1496:I 4.38054e-05
25 *1439:D *1438:CLK 6.15997e-06
26 *1439:D *1496:I 0.00109879
27 *1440:D *1440:CLK 0
28 *1563:I *1496:I 2.46957e-05
29 *191:20 *1496:I 0.00124388
*RES
1 *1482:Z *221:4 4.5 
2 *221:4 *1438:CLK 6.268 
3 *221:4 *221:13 1.352 
4 *221:13 *1439:CLK 4.5 
5 *221:13 *1440:CLK 7.828 
6 *1482:Z *1496:I 31.936 
*END

*D_NET *222 0.00613481
*CONN
*I *1420:CLK I *D gf180mcu_fd_sc_mcu7t5v0__dffrnq_1
*I *1419:CLK I *D gf180mcu_fd_sc_mcu7t5v0__dffrnq_1
*I *1497:I I *D gf180mcu_fd_sc_mcu7t5v0__clkbuf_2
*I *1418:CLK I *D gf180mcu_fd_sc_mcu7t5v0__dffrnq_1
*I *1483:Z O *D gf180mcu_fd_sc_mcu7t5v0__clkbuf_8
*CAP
1 *1420:CLK 0.000124758
2 *1419:CLK 0
3 *1497:I 0.000279848
4 *1418:CLK 6.21432e-05
5 *1483:Z 0.00019155
6 *222:33 0.000287972
7 *222:18 0.000572469
8 *1418:CLK *1324:A1 0.000509988
9 *1497:I *392:I 2.91971e-05
10 *1497:I *334:24 2.56304e-05
11 *222:18 *1324:A1 5.291e-05
12 *1324:B *1420:CLK 0.000583315
13 *1324:B *222:18 4.98229e-05
14 *1324:B *222:33 0.000393859
15 *1496:I *1497:I 6.17392e-05
16 *191:20 *1418:CLK 0.000105685
17 *191:20 *1420:CLK 0.00104009
18 *191:20 *222:18 0.000631161
19 *191:20 *222:33 0.00113267
*RES
1 *1483:Z *1418:CLK 10.352 
2 *1483:Z *222:18 6.268 
3 *222:18 *1497:I 15.06 
4 *222:18 *222:33 3.328 
5 *222:33 *1419:CLK 4.5 
6 *222:33 *1420:CLK 7.516 
*END

*D_NET *223 0.0112693
*CONN
*I *1464:CLK I *D gf180mcu_fd_sc_mcu7t5v0__dffrnq_1
*I *1452:CLK I *D gf180mcu_fd_sc_mcu7t5v0__dffrnq_1
*I *1453:CLK I *D gf180mcu_fd_sc_mcu7t5v0__dffrnq_1
*I *1465:CLK I *D gf180mcu_fd_sc_mcu7t5v0__dffrnq_1
*I *1498:I I *D gf180mcu_fd_sc_mcu7t5v0__clkbuf_2
*I *1484:Z O *D gf180mcu_fd_sc_mcu7t5v0__clkbuf_8
*CAP
1 *1464:CLK 0.000346352
2 *1452:CLK 0.000487228
3 *1453:CLK 4.18815e-05
4 *1465:CLK 0
5 *1498:I 0.000323679
6 *1484:Z 3.6366e-05
7 *223:36 0.00116912
8 *223:16 0.000385674
9 *223:12 0.000823761
10 *223:6 0.000504474
11 *1452:CLK *357:I 0.000161668
12 *1452:CLK *1256:I 3.22108e-05
13 *1452:CLK *273:10 4.04798e-05
14 *1464:CLK *305:8 0.00141153
15 *1464:CLK *305:12 4.45218e-05
16 *1498:I *1288:B 0.00010924
17 *1498:I *1465:D 4.67771e-06
18 *1498:I *1571:I 6.8199e-07
19 *1498:I *265:14 0
20 *223:12 *1288:B 0.000235881
21 *223:12 *305:12 4.6157e-05
22 *223:16 *1288:B 0.000472507
23 *223:36 *1256:I 0.000159025
24 *223:36 *1465:D 4.67771e-06
25 *223:36 *1551:I 0.000702521
26 *223:36 *265:14 8.48563e-06
27 *223:36 *305:12 0.000871086
28 *1280:A3 *223:12 0.000262946
29 *1280:A3 *223:16 0.000463116
30 *1383:A1 *1464:CLK 0.000736243
31 *1383:A1 *223:12 0.000236729
32 *1461:D *1464:CLK 0.000461436
33 *1461:D *223:12 0.000500772
34 *1503:I *1452:CLK 0.000114435
35 *1503:I *223:36 3.57634e-06
36 *104:12 *1452:CLK 2.63059e-05
37 *165:6 *223:36 3.98205e-05
*RES
1 *1484:Z *223:6 4.812 
2 *223:6 *223:12 6.996 
3 *223:12 *223:16 5.852 
4 *223:16 *1498:I 6.892 
5 *223:16 *1465:CLK 4.5 
6 *223:12 *223:36 10.428 
7 *223:36 *1453:CLK 4.812 
8 *223:36 *1452:CLK 7.828 
9 *223:6 *1464:CLK 10.22 
*END

*D_NET *224 0.00697116
*CONN
*I *1430:CLK I *D gf180mcu_fd_sc_mcu7t5v0__dffsnq_1
*I *1462:CLK I *D gf180mcu_fd_sc_mcu7t5v0__dffrnq_1
*I *1499:I I *D gf180mcu_fd_sc_mcu7t5v0__clkbuf_2
*I *1455:CLK I *D gf180mcu_fd_sc_mcu7t5v0__dffrnq_1
*I *1485:Z O *D gf180mcu_fd_sc_mcu7t5v0__clkbuf_8
*CAP
1 *1430:CLK 0.00140045
2 *1462:CLK 0
3 *1499:I 0.000264952
4 *1455:CLK 0
5 *1485:Z 0.00165043
6 *224:19 0.000513543
7 *224:12 0.000498567
8 *1430:CLK *1403:A1 5.6979e-06
9 *1430:CLK *1407:B2 2.57168e-05
10 *1430:CLK *1509:I 6.8199e-07
11 *1430:CLK *1525:I 5.13239e-06
12 *1430:CLK *231:22 0
13 *1430:CLK *276:20 1.77376e-05
14 *1430:CLK *282:29 5.50465e-05
15 *1430:CLK *287:10 0.000323128
16 *1499:I *248:65 0.000228545
17 *224:12 *231:16 0.000445946
18 *224:12 *231:22 4.07478e-05
19 *1292:B1 *1430:CLK 1.86663e-05
20 *1369:A2 *1499:I 2.92346e-05
21 *1369:A2 *224:12 0.000108038
22 *1376:A1 *224:19 0
23 *1377:A3 *224:19 0.000111066
24 *1407:A1 *224:12 0.000860577
25 *1407:B1 *1430:CLK 0
26 *1430:D *1430:CLK 0
27 *1455:D *1499:I 7.48857e-05
28 *1455:D *224:19 7.16641e-06
29 *1462:D *224:19 1.07369e-05
30 *1469:I *1430:CLK 0
31 *4:30 *224:12 0.000120817
32 *4:30 *224:19 1.27762e-05
33 *196:10 *1430:CLK 5.36452e-06
34 *208:385 *224:12 0.000114459
35 *208:385 *224:19 2.10463e-05
*RES
1 *1485:Z *224:12 17.244 
2 *224:12 *1455:CLK 4.5 
3 *224:12 *224:19 1.56 
4 *224:19 *1499:I 15.476 
5 *224:19 *1462:CLK 4.5 
6 *1485:Z *1430:CLK 17.112 
*END

*D_NET *225 0.0259863
*CONN
*I *1251:I I *D gf180mcu_fd_sc_mcu7t5v0__clkinv_1
*I *1277:A1 I *D gf180mcu_fd_sc_mcu7t5v0__nand3_1
*I *1411:A1 I *D gf180mcu_fd_sc_mcu7t5v0__xor2_1
*I *1410:A2 I *D gf180mcu_fd_sc_mcu7t5v0__nand4_1
*I *1281:A1 I *D gf180mcu_fd_sc_mcu7t5v0__nand4_1
*I *1280:A1 I *D gf180mcu_fd_sc_mcu7t5v0__nand3_1
*I *1431:Q O *D gf180mcu_fd_sc_mcu7t5v0__dffrnq_1
*CAP
1 *1251:I 0.000653136
2 *1277:A1 9.63505e-05
3 *1411:A1 0
4 *1410:A2 0.00197636
5 *1281:A1 0.000282702
6 *1280:A1 0.0013512
7 *1431:Q 0.000767055
8 *225:26 0.00230685
9 *225:20 0.00299823
10 *225:14 0.00137548
11 *225:8 0.00123683
12 *1251:I *1274:A1 3.83774e-05
13 *1251:I *1277:A3 0.000531405
14 *1251:I *1352:A1 0.000112144
15 *1251:I *1433:RN 0.000242137
16 *1251:I *1569:I 5.81438e-06
17 *1251:I *325:12 0.000791389
18 *1251:I *345:40 0
19 *1277:A1 *1277:A2 0.000122322
20 *1277:A1 *296:116 1.77267e-05
21 *1280:A1 *1288:B 9.32405e-06
22 *1280:A1 *1381:A1 0.000104306
23 *1280:A1 *1461:RN 8.02966e-05
24 *1280:A1 *1571:I 0.000165052
25 *1280:A1 *239:97 0.000386493
26 *1280:A1 *288:32 0.0015092
27 *1280:A1 *288:34 0.000350068
28 *1281:A1 *1465:RN 1.51918e-05
29 *1410:A2 *1408:A2 0.0001288
30 *1410:A2 *1529:I 9.7618e-05
31 *225:8 *1274:A1 0.000213838
32 *225:8 *228:16 0.000565795
33 *225:14 *1277:A2 4.17612e-05
34 *225:14 *1411:A2 0.00025301
35 *225:14 *226:12 0.000731668
36 *225:14 *296:116 0
37 *225:20 *1408:A2 1.35135e-05
38 *225:20 *344:56 2.06289e-05
39 *225:20 *344:60 6.64107e-06
40 *225:26 *298:86 0.00044569
41 *381:I *225:14 8.16357e-05
42 *414:I *1280:A1 0.000154455
43 *414:I *1281:A1 9.07424e-05
44 *443:I *1410:A2 7.75241e-06
45 *1276:A1 *1410:A2 9.96253e-05
46 *1280:A2 *1280:A1 0.00128215
47 *1283:A1 *225:8 0.000475614
48 *1283:A1 *225:14 1.42358e-05
49 *1283:A2 *1251:I 0
50 *1288:A2 *1280:A1 0.000273803
51 *1382:A1 *1281:A1 1.26479e-05
52 *1415:A1 *1251:I 0
53 *1460:CLK *1280:A1 1.67849e-05
54 *1464:D *1281:A1 0.000164859
55 *1464:D *225:8 2.14739e-05
56 *1464:D *225:14 0.000342636
57 *1464:D *225:20 2.0809e-05
58 *1488:I *1410:A2 0.000105623
59 *99:12 *1251:I 0.000993509
60 *100:54 *1281:A1 0.00022961
61 *116:20 *1281:A1 0.000164173
62 *170:26 *225:8 4.44924e-05
63 *191:34 *225:26 0.00063314
64 *198:26 *225:14 2.63101e-05
65 *211:52 *225:14 0
66 *211:52 *225:20 6.06504e-06
67 *214:41 *225:14 0.000679715
*RES
1 *1431:Q *225:8 11.184 
2 *225:8 *225:14 9.464 
3 *225:14 *225:20 5.95971 
4 *225:20 *225:26 11.4755 
5 *225:26 *1280:A1 25.6717 
6 *225:26 *1281:A1 15.6803 
7 *225:20 *1410:A2 20.6723 
8 *225:14 *1411:A1 9 
9 *225:8 *1277:A1 9.936 
10 *1431:Q *1251:I 24.968 
*END

*D_NET *226 0.0165303
*CONN
*I *1277:A2 I *D gf180mcu_fd_sc_mcu7t5v0__nand3_1
*I *1279:A2 I *D gf180mcu_fd_sc_mcu7t5v0__nor2_1
*I *1252:I I *D gf180mcu_fd_sc_mcu7t5v0__clkinv_1
*I *1411:A2 I *D gf180mcu_fd_sc_mcu7t5v0__xor2_1
*I *1432:Q O *D gf180mcu_fd_sc_mcu7t5v0__dffrnq_1
*CAP
1 *1277:A2 0.000152361
2 *1279:A2 0.000223239
3 *1252:I 0.00194431
4 *1411:A2 6.93147e-05
5 *1432:Q 0
6 *226:27 0.00269904
7 *226:12 0.00149323
8 *226:6 0.00104479
9 *1252:I *1381:A2 6.49171e-06
10 *1252:I *1457:SETN 0.00033257
11 *1252:I *1526:I 0.000508627
12 *1252:I *1528:I 4.37955e-06
13 *1252:I *1552:I 0.000636612
14 *1252:I *275:10 9.85311e-05
15 *1252:I *296:10 0
16 *1252:I *309:23 0.00110975
17 *1277:A2 *296:116 0
18 dac_n[9] *1252:I 0
19 *398:I *1252:I 3.57195e-05
20 *415:I *1279:A2 6.31357e-05
21 *415:I *1411:A2 3.61058e-05
22 *415:I *226:12 0.000313015
23 *1275:A1 *1252:I 0.000201002
24 *1276:A1 *1252:I 0
25 *1276:A2 *1252:I 9.40615e-05
26 *1277:A1 *1277:A2 0.000122322
27 *1282:A2 *1252:I 7.69809e-05
28 *1282:A2 *1279:A2 5.01021e-05
29 *1297:A1 *1252:I 0.000136899
30 *1297:A1 *1279:A2 0.000158614
31 *1297:A1 *226:27 0.000120555
32 *1297:A2 *1252:I 3.13633e-05
33 *1299:B *226:12 6.35703e-05
34 *1299:B *226:27 0.00170676
35 *1412:A2 *1252:I 0.000621169
36 *1412:A2 *1279:A2 0.000387086
37 *4:30 *1252:I 0
38 *99:12 *1279:A2 6.03278e-05
39 *99:14 *1279:A2 2.76367e-05
40 *101:16 *226:12 0
41 *112:17 *1252:I 0.000106313
42 *123:65 *226:27 8.11207e-05
43 *214:41 *226:12 0.000686725
44 *225:14 *1277:A2 4.17612e-05
45 *225:14 *1411:A2 0.00025301
46 *225:14 *226:12 0.000731668
*RES
1 *1432:Q *226:6 9 
2 *226:6 *226:12 8.008 
3 *226:12 *1411:A2 9.728 
4 *226:12 *226:27 13.888 
5 *226:27 *1252:I 26.16 
6 *226:27 *1279:A2 20.496 
7 *226:6 *1277:A2 10.352 
*END

*D_NET *227 0.00678753
*CONN
*I *1254:I I *D gf180mcu_fd_sc_mcu7t5v0__clkinv_1
*I *1274:A2 I *D gf180mcu_fd_sc_mcu7t5v0__nor2_2
*I *1277:A3 I *D gf180mcu_fd_sc_mcu7t5v0__nand3_1
*I *1433:Q O *D gf180mcu_fd_sc_mcu7t5v0__dffrnq_1
*CAP
1 *1254:I 0
2 *1274:A2 0.000263957
3 *1277:A3 0.00100747
4 *1433:Q 0
5 *227:31 0.000709247
6 *227:4 0.00145276
7 *1277:A3 *354:I 1.11104e-05
8 *1277:A3 *1352:A1 5.35623e-05
9 *1277:A3 *1433:RN 2.14739e-05
10 *1277:A3 *1434:RN 0.000151506
11 *1277:A3 *1463:RN 0.000326941
12 *1277:A3 *272:86 3.15215e-06
13 *1277:A3 *272:97 1.36398e-06
14 *1277:A3 *272:186 3.22441e-06
15 *227:31 *354:I 0.000106582
16 *360:I *1274:A2 0.000451252
17 *360:I *227:31 0.000294766
18 *1251:I *1277:A3 0.000531405
19 *1282:A2 *1274:A2 0.000845089
20 *1415:A1 *1277:A3 2.63679e-05
21 *99:12 *1274:A2 0
22 *99:12 *1277:A3 5.35521e-05
23 *99:12 *227:31 0
24 *120:81 *1274:A2 3.646e-05
25 *121:24 *1274:A2 0.000436296
*RES
1 *1433:Q *227:4 4.5 
2 *227:4 *1277:A3 21.196 
3 *227:4 *227:31 8.036 
4 *227:31 *1274:A2 13.264 
5 *227:31 *1254:I 9 
*END

*D_NET *228 0.0177173
*CONN
*I *1274:A1 I *D gf180mcu_fd_sc_mcu7t5v0__nor2_2
*I *1278:A1 I *D gf180mcu_fd_sc_mcu7t5v0__nor3_1
*I *1285:A1 I *D gf180mcu_fd_sc_mcu7t5v0__oai21_1
*I *1253:I I *D gf180mcu_fd_sc_mcu7t5v0__clkinv_1
*I *1434:Q O *D gf180mcu_fd_sc_mcu7t5v0__dffrnq_1
*CAP
1 *1274:A1 0.000825063
2 *1278:A1 0.000484454
3 *1285:A1 3.22948e-05
4 *1253:I 9.88112e-05
5 *1434:Q 0.000262346
6 *228:24 0.000204838
7 *228:16 0.000913885
8 *228:10 0.00144311
9 *1253:I *274:108 1.42704e-05
10 *1274:A1 *325:12 0.000140137
11 *1278:A1 *1601:I 0.00070975
12 *228:10 *1434:RN 0.000397803
13 *228:10 *296:116 0.00114737
14 *228:16 *344:8 4.69809e-05
15 *228:24 *350:I 0.00013467
16 *382:I *1274:A1 3.0277e-06
17 *1251:I *1274:A1 3.83774e-05
18 *1278:A2 *1278:A1 2.83563e-05
19 *1283:A1 *1274:A1 0.000134339
20 *1286:A2 *1253:I 9.95131e-05
21 *1286:A2 *1285:A1 9.76253e-05
22 *1301:B1 *1274:A1 0.000132321
23 *1407:C *1278:A1 1.14453e-05
24 *1415:A1 *1274:A1 0.000655228
25 *1415:A1 *1278:A1 0.00111609
26 *1415:A1 *228:16 0.00126822
27 *1433:D *1274:A1 0.000256509
28 *1433:CLK *1274:A1 3.9438e-05
29 *1460:D *1274:A1 8.71617e-05
30 *44:10 *1278:A1 4.07478e-05
31 *99:12 *1274:A1 0.00015425
32 *101:16 *1253:I 4.21929e-05
33 *101:16 *1285:A1 8.11931e-06
34 *101:16 *228:16 0.00100065
35 *101:16 *228:24 0.000166817
36 *113:10 *1278:A1 0.00239919
37 *113:10 *228:24 0.000339262
38 *113:16 *1278:A1 0.000411828
39 *170:26 *228:10 9.03002e-05
40 *170:26 *228:16 0.00121689
41 *170:26 *228:24 0.000174813
42 *170:55 *228:10 6.92086e-05
43 *225:8 *1274:A1 0.000213838
44 *225:8 *228:16 0.000565795
*RES
1 *1434:Q *228:10 16.724 
2 *228:10 *228:16 7.384 
3 *228:16 *228:24 10.456 
4 *228:24 *1253:I 5.228 
5 *228:24 *1285:A1 4.812 
6 *228:16 *1278:A1 22.236 
7 *228:10 *1274:A1 21.3 
*END

*D_NET *229 0.0444814
*CONN
*I *441:I I *D gf180mcu_fd_sc_mcu7t5v0__antenna
*I *1536:I I *D gf180mcu_fd_sc_mcu7t5v0__dlyb_1
*I *1371:A1 I *D gf180mcu_fd_sc_mcu7t5v0__aoi211_2
*I *394:I I *D gf180mcu_fd_sc_mcu7t5v0__antenna
*I *438:I I *D gf180mcu_fd_sc_mcu7t5v0__antenna
*I *1537:I I *D gf180mcu_fd_sc_mcu7t5v0__dlyb_1
*I *439:I I *D gf180mcu_fd_sc_mcu7t5v0__antenna
*I *1539:Z O *D gf180mcu_fd_sc_mcu7t5v0__dlyb_1
*CAP
1 *441:I 0.00428974
2 *1536:I 0
3 *1371:A1 0.000159677
4 *394:I 0
5 *438:I 0.000138372
6 *1537:I 0.00203497
7 *439:I 0
8 *1539:Z 0.00137282
9 *229:94 0.00445563
10 *229:83 0.000428147
11 *229:72 0.000633836
12 *229:51 0.0019937
13 *229:22 0.00208373
14 *441:I *433:I 3.71793e-05
15 *441:I *1530:I 0.000151565
16 *441:I *1587:I 0
17 *441:I *256:10 1.47553e-05
18 *441:I *260:12 0.000160173
19 *441:I *276:192 8.59354e-05
20 *441:I *284:12 0.00204505
21 *441:I *285:27 0
22 *441:I *327:53 0
23 *1371:A1 *372:I 0.000245395
24 *1371:A1 *312:14 0.000997485
25 *1537:I *1271:A1 0.000581283
26 *1537:I *1445:RN 0.000549022
27 *1537:I *1459:SETN 0.00189422
28 *1537:I *241:62 0.000986425
29 *1537:I *243:21 3.41124e-05
30 *1537:I *328:16 0.000532256
31 *229:22 *403:I 4.93756e-05
32 *229:22 *239:41 9.49507e-05
33 *229:22 *265:38 0.000128131
34 *229:22 *281:35 7.02352e-05
35 *229:22 *281:43 2.38773e-05
36 *229:22 *296:46 2.80106e-05
37 *229:51 *1337:A1 0.000211054
38 *229:51 *1353:A1 0.00011237
39 *229:51 *290:61 6.51159e-05
40 *229:51 *291:44 3.40995e-06
41 *229:72 *1337:A1 0.000117037
42 *229:72 *312:14 0.000607771
43 *229:83 *276:192 4.14686e-05
44 *229:83 *312:14 3.22108e-05
45 *229:94 *276:192 0.000141171
46 dout[5] *441:I 0
47 samp_top *229:22 0
48 *397:I *441:I 0.000263217
49 *1313:A2 *229:51 0.000903228
50 *1329:A1 *229:51 0.0015079
51 *1333:A2 *441:I 0.00110934
52 *1335:A2 *441:I 0
53 *1343:A2 *441:I 0.000946864
54 *1343:A2 *229:72 0
55 *1343:A2 *229:83 0.000271774
56 *1343:A2 *229:94 0.000776469
57 *1347:B *1537:I 4.03666e-06
58 *1351:A2 *229:22 0.000774942
59 *1357:B *229:22 0.00492521
60 *1359:B *229:51 0.00117628
61 *1366:A2 *438:I 0.00019118
62 *1366:A2 *229:51 3.22108e-05
63 *1366:A2 *229:72 0.000181002
64 *1421:D *441:I 0.000313157
65 *1422:D *441:I 6.6107e-06
66 *1446:D *1537:I 0.000180228
67 *1446:D *229:22 4.18042e-05
68 *1480:I *229:51 0
69 *1520:I *229:51 0.00120342
70 *1562:I *1371:A1 5.66907e-05
71 *1562:I *229:72 6.97699e-05
72 *97:60 *229:51 6.15781e-05
73 *108:43 *438:I 0.00018113
74 *118:14 *229:72 0
75 *153:6 *229:51 0.00019841
76 *153:6 *229:72 4.49307e-05
77 *159:12 *229:72 0
78 *159:41 *1371:A1 0.000103788
79 *159:43 *1371:A1 0.000430937
80 *166:22 *229:22 4.01627e-05
81 *170:26 *229:51 8.07417e-05
82 *171:24 *229:22 0.000689246
83 *172:20 *229:72 4.54885e-05
84 *177:22 *438:I 1.86806e-05
85 *191:34 *441:I 1.92932e-05
86 *208:11 *229:72 0
87 *208:11 *229:83 0
*RES
1 *1539:Z *229:22 35.8776 
2 *229:22 *439:I 9 
3 *229:22 *1537:I 19.816 
4 *1537:I *229:51 19.372 
5 *229:51 *438:I 14.852 
6 *229:51 *229:72 14.096 
7 *229:72 *394:I 4.5 
8 *229:72 *229:83 5.54 
9 *229:83 *1371:A1 12.016 
10 *229:83 *229:94 2.184 
11 *229:94 *1536:I 9 
12 *229:94 *441:I 41.968 
*END

*D_NET *230 0.0367006
*CONN
*I *1564:I I *D gf180mcu_fd_sc_mcu7t5v0__buf_2
*I *447:I I *D gf180mcu_fd_sc_mcu7t5v0__antenna
*I *353:I I *D gf180mcu_fd_sc_mcu7t5v0__antenna
*I *1263:ZN O *D gf180mcu_fd_sc_mcu7t5v0__clkinv_1
*CAP
1 *1564:I 0.00108402
2 *447:I 0.000302081
3 *353:I 0.00187793
4 *1263:ZN 0
5 *230:41 0.0013861
6 *230:39 0.00379306
7 *230:4 0.00567099
8 *353:I *404:I 0.000216144
9 *353:I *1303:B 4.27297e-05
10 *353:I *1316:A2 0.000213915
11 *353:I *1386:S 0.0004162
12 *353:I *1436:RN 0
13 *353:I *1468:I 4.93741e-05
14 *353:I *243:36 8.01587e-05
15 *353:I *277:63 2.33158e-05
16 *353:I *289:14 0
17 *353:I *291:44 6.85626e-05
18 *353:I *328:10 4.17612e-05
19 *353:I *328:43 0.000246102
20 *447:I *273:61 0.000476175
21 *1564:I *349:I 1.88832e-05
22 *1564:I *1265:I 0
23 *1564:I *1269:I 0.000253987
24 *1564:I *1366:A1 4.51452e-05
25 *1564:I *1367:A2 0.00280534
26 *1564:I *1454:RN 5.02242e-05
27 *1564:I *1566:I 0.000463624
28 *1564:I *1567:I 0.000222213
29 *1564:I *247:24 0.000146044
30 *1564:I *249:12 0.000406983
31 *1564:I *273:61 0.000997909
32 *1564:I *297:26 0.000501518
33 *1564:I *304:12 4.77699e-05
34 *1564:I *304:14 0.000189406
35 *230:39 *1258:I 2.27921e-05
36 *230:39 *1265:I 0
37 *230:39 *1270:A1 3.05326e-05
38 *230:39 *1270:A2 0
39 *230:39 *1312:A2 0.000899123
40 *230:39 *1312:A3 7.84307e-05
41 *230:39 *1349:A1 1.46644e-05
42 *230:39 *1356:A1 0.000103788
43 *230:39 *1399:B1 5.00252e-05
44 *230:39 *1572:I 0.000596613
45 *230:39 *243:36 2.81522e-06
46 *230:39 *243:67 0.00147596
47 *230:39 *272:59 2.24359e-05
48 *230:39 *277:18 0.000474589
49 dac_n[2] *1564:I 0.00033253
50 dac_p[1] *447:I 0.000834764
51 dac_p[5] *447:I 0.000112356
52 dac_p[5] *230:39 0.000189025
53 dac_p[7] *1564:I 0.000189199
54 dac_p[8] *1564:I 0.000713451
55 *1306:A1 *353:I 0.000627795
56 *1311:A2 *230:39 0.000208588
57 *1312:A1 *230:39 0.000157339
58 *1325:A1 *230:39 4.7393e-05
59 *1328:B *230:39 0
60 *1357:B *230:39 0.000439619
61 *1359:B *230:39 0.000645296
62 *1366:A2 *1564:I 0.000208417
63 *1372:B *447:I 0.000466947
64 *1372:B *1564:I 0.00132353
65 *1400:A2 *230:39 3.2979e-05
66 *1400:B2 *230:39 0
67 *1435:D *353:I 8.94086e-06
68 *1450:D *447:I 0.000188231
69 *1451:D *1564:I 2.1846e-05
70 *1478:I *230:39 0.000247789
71 *1503:I *230:39 5.72081e-05
72 *94:37 *230:39 0.000808043
73 *94:54 *230:39 0.0014416
74 *95:16 *230:39 0
75 *187:20 *353:I 0
76 *206:22 *230:39 0
77 *208:21 *230:39 0.000192195
78 *208:23 *230:39 0.000135593
79 *208:69 *230:39 0.000104666
80 *208:85 *230:39 0.000507659
81 *208:123 *230:39 0.00052345
82 *220:17 *353:I 2.46957e-05
*RES
1 *1263:ZN *230:4 4.5 
2 *230:4 *353:I 26.916 
3 *230:4 *230:39 47.3 
4 *230:39 *230:41 4.5 
5 *230:41 *447:I 17.244 
6 *230:41 *1564:I 32.116 
*END

*D_NET *231 0.0241588
*CONN
*I *1375:A2 I *D gf180mcu_fd_sc_mcu7t5v0__nor3_1
*I *1305:A1 I *D gf180mcu_fd_sc_mcu7t5v0__oai21_1
*I *1292:A1 I *D gf180mcu_fd_sc_mcu7t5v0__oai22_4
*I *1403:A1 I *D gf180mcu_fd_sc_mcu7t5v0__oai211_1
*I *1399:B1 I *D gf180mcu_fd_sc_mcu7t5v0__oai22_4
*I *1542:Z O *D gf180mcu_fd_sc_mcu7t5v0__buf_2
*CAP
1 *1375:A2 0.000345752
2 *1305:A1 0.00025842
3 *1292:A1 0.000175351
4 *1403:A1 0.00013539
5 *1399:B1 0.0027005
6 *1542:Z 0.000349583
7 *231:50 0.000677036
8 *231:22 0.00327874
9 *231:16 0.00128588
10 *231:10 0.0012951
11 *1292:A1 *343:12 0.000639156
12 *1305:A1 *348:I 0.000515201
13 *1375:A2 *1273:A1 0.000175906
14 *1375:A2 *1375:A1 0.000124004
15 *1375:A2 *1375:A3 0.000254586
16 *1375:A2 *1408:A2 0.000251294
17 *1375:A2 *1601:I 0.00109041
18 *1403:A1 *1407:B2 2.63994e-05
19 *1403:A1 *276:20 0.000131266
20 *231:10 *380:I 0.000219165
21 *231:10 *239:47 1.97285e-06
22 *231:10 *239:97 0.000317031
23 *231:16 *1273:A1 0.00154382
24 *231:16 *1601:I 0.000463772
25 *231:22 *1273:A1 0.000360416
26 *231:22 *1292:B2 0.000257606
27 *231:22 *1376:A2 0.00039387
28 *231:22 *1515:I 2.14739e-05
29 *231:22 *276:20 0.000252185
30 *231:22 *343:27 1.37509e-05
31 *231:50 *348:I 0.00028351
32 *427:I *231:16 1.55298e-05
33 *1296:A2 *1375:A2 6.35454e-05
34 *1296:A2 *231:16 0.000337133
35 *1296:A3 *231:10 0
36 *1357:B *1399:B1 9.59923e-05
37 *1372:A2 *231:50 0.000455555
38 *1374:B2 *1305:A1 0.000860381
39 *1374:B2 *231:50 0.00147402
40 *1407:A1 *231:50 4.43318e-06
41 *1408:A3 *1375:A2 0.000254586
42 *1412:B1 *1375:A2 3.53198e-05
43 *1430:CLK *1403:A1 5.6979e-06
44 *1430:CLK *231:22 0
45 *1466:D *1375:A2 0.000424641
46 *1469:I *1292:A1 2.38656e-05
47 *1488:I *1375:A2 0.000182119
48 *4:30 *231:16 1.30206e-06
49 *4:30 *231:22 9.82775e-05
50 *123:16 *231:22 0.000714597
51 *124:16 *231:10 0.000235068
52 *135:20 *1305:A1 0.000183165
53 *208:15 *1403:A1 1.45491e-05
54 *208:15 *231:22 1.57158e-05
55 *208:371 *231:22 0
56 *208:397 *231:16 0.000288047
57 *224:12 *231:16 0.000445946
58 *224:12 *231:22 4.07478e-05
59 *230:39 *1399:B1 5.00252e-05
*RES
1 *1542:Z *231:10 16.516 
2 *231:10 *231:16 7.592 
3 *231:16 *231:22 9.284 
4 *231:22 *1399:B1 27.464 
5 *231:22 *1403:A1 9.832 
6 *231:16 *231:50 8.764 
7 *231:50 *1292:A1 10.768 
8 *231:50 *1305:A1 12.64 
9 *231:10 *1375:A2 10.428 
*END

*D_NET *232 0.0147482
*CONN
*I *1385:S I *D gf180mcu_fd_sc_mcu7t5v0__mux2_2
*I *1386:S I *D gf180mcu_fd_sc_mcu7t5v0__mux2_2
*I *1389:S I *D gf180mcu_fd_sc_mcu7t5v0__mux2_2
*I *1388:S I *D gf180mcu_fd_sc_mcu7t5v0__mux2_2
*I *1387:S I *D gf180mcu_fd_sc_mcu7t5v0__mux2_2
*I *1543:Z O *D gf180mcu_fd_sc_mcu7t5v0__buf_2
*CAP
1 *1385:S 0
2 *1386:S 0.000718232
3 *1389:S 0
4 *1388:S 0
5 *1387:S 0.00111499
6 *1543:Z 0.000483284
7 *232:56 0.00122132
8 *232:18 0.000865197
9 *232:16 0.000736582
10 *1386:S *405:I 0.000507531
11 *1386:S *1314:A1 5.91832e-05
12 *1386:S *1386:I0 2.71502e-05
13 *1386:S *241:62 0.000346828
14 *1386:S *274:159 0
15 *1386:S *289:14 0
16 *1387:S *392:I 7.3514e-05
17 *1387:S *1388:I1 0.000557466
18 *1387:S *1584:I 0.00019118
19 *1387:S *274:159 5.8376e-05
20 *232:16 *1530:I 0.00311436
21 *232:16 *1585:I 2.27921e-05
22 *232:16 *255:10 4.55843e-06
23 *232:16 *285:51 0.000714529
24 *232:18 *1530:I 0.000664711
25 *232:18 *1584:I 3.22108e-05
26 *232:18 *285:51 0.000219295
27 *232:56 *404:I 0.000379567
28 *232:56 *405:I 4.19992e-07
29 *232:56 *1314:A1 8.83236e-05
30 *232:56 *1385:I0 4.21338e-05
31 *232:56 *274:159 7.71174e-05
32 dout[3] *232:18 7.00677e-05
33 dout[4] *232:16 0.000287593
34 dout[5] *232:16 0.000918725
35 *353:I *1386:S 0.0004162
36 *424:I *232:56 0.000248598
37 *1306:A1 *1386:S 1.90528e-05
38 *1416:CLK *1386:S 0.000111615
39 *1496:I *1387:S 0.000140071
40 *1496:I *232:56 0
41 *220:17 *1386:S 0.000215439
*RES
1 *1543:Z *232:16 22.86 
2 *232:16 *232:18 3.016 
3 *232:18 *1387:S 18.908 
4 *232:18 *1388:S 4.5 
5 *232:16 *1389:S 4.5 
6 *1387:S *232:56 17.764 
7 *232:56 *1386:S 19.844 
8 *232:56 *1385:S 4.5 
*END

*D_NET *233 0.0158648
*CONN
*I *1565:I I *D gf180mcu_fd_sc_mcu7t5v0__buf_2
*I *1264:ZN O *D gf180mcu_fd_sc_mcu7t5v0__clkinv_1
*CAP
1 *1565:I 0.000811077
2 *1264:ZN 0.00381678
3 *233:18 0.00462786
4 *1565:I *1374:A1 5.08316e-05
5 *1565:I *1570:I 0.00012477
6 *233:18 *280:31 0.000119003
7 *233:18 *290:129 0.000435571
8 *233:18 *292:47 0.00111502
9 *233:18 *298:14 0.00346284
10 *1363:B *233:18 0.000115388
11 *1374:B1 *233:18 0
12 *47:20 *1565:I 0.000750414
13 *108:14 *233:18 2.13432e-05
14 *206:14 *233:18 0.000288459
15 *206:22 *233:18 0.000125446
*RES
1 *1264:ZN *233:18 43.9141 
2 *233:18 *1565:I 21.0511 
*END

*D_NET *234 0.0112301
*CONN
*I *1566:I I *D gf180mcu_fd_sc_mcu7t5v0__buf_2
*I *1265:ZN O *D gf180mcu_fd_sc_mcu7t5v0__clkinv_1
*CAP
1 *1566:I 0.00104029
2 *1265:ZN 0.00104029
3 *1566:I *1367:A1 0.00347919
4 *1566:I *1367:A2 0.00291914
5 *1566:I *1567:I 0.000151937
6 *1566:I *235:18 8.8007e-05
7 *1566:I *247:24 0.000137744
8 dac_n[4] *1566:I 0.000153751
9 dac_n[5] *1566:I 3.65659e-05
10 dac_n[6] *1566:I 0
11 dac_p[8] *1566:I 0.000713451
12 dac_p[9] *1566:I 0.000500761
13 *1564:I *1566:I 0.000463624
14 *47:20 *1566:I 0.000494642
15 *210:23 *1566:I 1.07369e-05
*RES
1 *1265:ZN *1566:I 26.992 
*END

*D_NET *235 0.0125645
*CONN
*I *1567:I I *D gf180mcu_fd_sc_mcu7t5v0__buf_2
*I *1266:ZN O *D gf180mcu_fd_sc_mcu7t5v0__clkinv_1
*CAP
1 *1567:I 0.00119464
2 *1266:ZN 0.00244176
3 *235:18 0.0036364
4 *1567:I *1269:I 0.000638345
5 *1567:I *1367:A2 8.1598e-06
6 *1567:I *1538:I 0.000200542
7 *1567:I *1548:I 4.55636e-06
8 *1567:I *296:10 7.29264e-05
9 *1567:I *298:14 0.000148864
10 *1567:I *298:65 0.00022261
11 *1567:I *298:76 0.000354442
12 *1567:I *342:30 1.34942e-05
13 *235:18 *1265:I 5.66761e-05
14 *235:18 *1266:I 0.000115388
15 *235:18 *1367:A1 0.000214703
16 *235:18 *1571:I 7.20938e-05
17 *235:18 *247:24 0.000219542
18 *235:18 *248:10 5.61634e-05
19 dac_n[0] *235:18 3.65529e-05
20 dac_n[1] *235:18 1.58443e-05
21 dac_n[2] *1567:I 0.000119436
22 dac_n[2] *235:18 2.38919e-05
23 dac_n[5] *1567:I 6.51425e-05
24 dac_n[6] *1567:I 2.74931e-05
25 dac_n[7] *1567:I 0.000225995
26 dac_p[0] *235:18 0.000273626
27 dac_p[1] *235:18 0.000187085
28 dac_p[4] *235:18 0.000347872
29 dac_p[6] *235:18 0.000162372
30 dac_p[8] *235:18 1.97754e-05
31 *1396:A2 *1567:I 2.38656e-05
32 *1458:D *1567:I 0.000872157
33 *1564:I *1567:I 0.000222213
34 *1566:I *1567:I 0.000151937
35 *1566:I *235:18 8.8007e-05
36 *86:16 *1567:I 1.60428e-05
37 *100:16 *1567:I 1.39235e-05
38 *210:23 *1567:I 0
*RES
1 *1266:ZN *235:18 41.324 
2 *235:18 *1567:I 18.228 
*END

*D_NET *236 0.0136509
*CONN
*I *1568:I I *D gf180mcu_fd_sc_mcu7t5v0__buf_2
*I *1267:ZN O *D gf180mcu_fd_sc_mcu7t5v0__clkinv_1
*CAP
1 *1568:I 0
2 *1267:ZN 0.00359938
3 *236:12 0.00359938
4 *236:12 *298:86 7.97576e-05
5 *236:12 *319:16 0.00517307
6 *47:20 *236:12 0.00119934
*RES
1 *1267:ZN *236:12 46.6 
2 *236:12 *1568:I 9 
*END

*D_NET *237 0.0121635
*CONN
*I *1569:I I *D gf180mcu_fd_sc_mcu7t5v0__buf_2
*I *1268:ZN O *D gf180mcu_fd_sc_mcu7t5v0__clkinv_1
*CAP
1 *1569:I 0.00230178
2 *1268:ZN 0.00230178
3 *1569:I *1250:I 0.000237477
4 *1569:I *1299:A2 0.000883458
5 *1569:I *1529:I 0.00016582
6 *1569:I *307:18 0.000228223
7 *1569:I *345:25 0.000270749
8 *1569:I *345:40 0.000895109
9 cmp_rst *1569:I 0.000460899
10 *443:I *1569:I 0.00101927
11 *1251:I *1569:I 5.81438e-06
12 *1299:B *1569:I 0.000190103
13 *1382:A2 *1569:I 0.00257342
14 *1457:D *1569:I 3.646e-05
15 *1541:I *1569:I 0.000223985
16 *4:30 *1569:I 0.000194194
17 *98:12 *1569:I 0.000158314
18 *99:12 *1569:I 1.6659e-05
*RES
1 *1268:ZN *1569:I 46.6 
*END

*D_NET *238 0.00961224
*CONN
*I *1570:I I *D gf180mcu_fd_sc_mcu7t5v0__buf_2
*I *1374:A1 I *D gf180mcu_fd_sc_mcu7t5v0__aoi22_1
*I *1269:ZN O *D gf180mcu_fd_sc_mcu7t5v0__clkinv_1
*CAP
1 *1570:I 0.00273641
2 *1374:A1 0.00111941
3 *1269:ZN 0
4 *238:8 0.00385582
5 *1374:A1 *1287:A1 6.24244e-05
6 *1374:A1 *1379:A1 2.33885e-05
7 *1374:A1 *1599:I 5.98112e-05
8 *1374:A1 *280:48 8.88369e-05
9 *1374:A1 *296:34 7.20787e-05
10 *1570:I *1460:RN 0.000450565
11 *1570:I *296:34 1.40117e-05
12 dac_n[9] *1570:I 0.000200178
13 *1457:D *1570:I 0.000120912
14 *1565:I *1374:A1 5.08316e-05
15 *1565:I *1570:I 0.00012477
16 *47:20 *1374:A1 0
17 *47:20 *1570:I 0
18 *86:16 *1570:I 0
19 *120:67 *1374:A1 0.000609398
20 *122:20 *1374:A1 2.33885e-05
*RES
1 *1269:ZN *238:8 13.5 
2 *238:8 *1374:A1 20.884 
3 *238:8 *1570:I 30.14 
*END

*D_NET *239 0.0622575
*CONN
*I *402:I I *D gf180mcu_fd_sc_mcu7t5v0__antenna
*I *376:I I *D gf180mcu_fd_sc_mcu7t5v0__antenna
*I *448:I I *D gf180mcu_fd_sc_mcu7t5v0__antenna
*I *1571:I I *D gf180mcu_fd_sc_mcu7t5v0__buf_2
*I *1346:A1 I *D gf180mcu_fd_sc_mcu7t5v0__nand2_1
*I *350:I I *D gf180mcu_fd_sc_mcu7t5v0__antenna
*I *1260:I I *D gf180mcu_fd_sc_mcu7t5v0__clkinv_1
*I *1445:Q O *D gf180mcu_fd_sc_mcu7t5v0__dffrnq_1
*CAP
1 *402:I 8.0291e-06
2 *376:I 0.00015478
3 *448:I 0.000196509
4 *1571:I 0.00149411
5 *1346:A1 0.000746957
6 *350:I 0.00326176
7 *1260:I 0.00082835
8 *1445:Q 0.00105957
9 *239:97 0.00281359
10 *239:83 0.00139719
11 *239:47 0.00462894
12 *239:41 0.00571696
13 *239:18 0.00663334
14 *239:12 0.0018953
15 *350:I *358:I 4.33918e-05
16 *350:I *451:I 0
17 *350:I *1392:I0 0.000513007
18 *350:I *1392:I1 0.000168812
19 *350:I *1466:RN 0.00122711
20 *350:I *1588:I 0.000401822
21 *350:I *248:65 0
22 *350:I *248:89 0
23 *350:I *258:8 2.76367e-05
24 *350:I *274:114 6.5309e-05
25 *350:I *326:27 2.08199e-05
26 *376:I *288:20 0.000158525
27 *402:I *1304:A1 0.000115388
28 *448:I *305:8 0
29 *1260:I *1304:A2 0.000205751
30 *1260:I *296:46 0
31 *1260:I *296:61 0.000125405
32 *1260:I *297:26 3.82231e-05
33 *1346:A1 *1346:A2 9.76253e-05
34 *1346:A1 *310:16 9.76253e-05
35 *1346:A1 *344:27 2.80412e-06
36 *1571:I *1288:B 0.000306078
37 *1571:I *1290:A1 0.000111066
38 *1571:I *1290:A2 0.000220596
39 *1571:I *1381:A1 1.82337e-05
40 *1571:I *1461:RN 0.000737116
41 *1571:I *1548:I 4.79725e-05
42 *1571:I *296:34 0.000647367
43 *1571:I *298:14 0
44 *1571:I *304:12 0
45 *1571:I *305:8 0
46 *1571:I *342:30 0
47 *239:12 *240:12 0.000180737
48 *239:12 *243:21 0
49 *239:12 *292:16 0.00115561
50 *239:12 *308:18 2.13246e-06
51 *239:41 *292:16 0.000548253
52 *239:41 *292:41 0.00282074
53 *239:41 *308:18 0.000174431
54 *239:47 *380:I 0.000375926
55 *239:47 *1601:I 0.00126449
56 *239:83 *288:20 0.00039932
57 *239:97 *288:26 2.88467e-05
58 *239:97 *341:14 0.000242798
59 dac_n[2] *1571:I 1.13999e-05
60 *414:I *239:97 0.000268915
61 *1273:A2 *239:41 0
62 *1273:A2 *239:83 0
63 *1280:A1 *1571:I 0.000165052
64 *1280:A1 *239:97 0.000386493
65 *1280:A2 *1571:I 0.00118496
66 *1296:A3 *239:47 0.000112821
67 *1296:A3 *239:97 0
68 *1299:B *1346:A1 4.28501e-06
69 *1310:B *239:18 0.000104064
70 *1340:B *350:I 0.000161548
71 *1343:A2 *350:I 5.87162e-06
72 *1348:A2 *1260:I 0.000241344
73 *1357:B *239:41 0
74 *1369:B *1571:I 2.2991e-06
75 *1407:C *350:I 0.000131729
76 *1415:A2 *1346:A1 0.000169615
77 *1423:D *350:I 0.00135487
78 *1443:D *350:I 1.23748e-05
79 *1443:CLK *350:I 0.00154241
80 *1445:D *1260:I 0.00011488
81 *1446:D *239:41 0
82 *1452:D *1571:I 0
83 *1460:D *448:I 1.97798e-05
84 *1462:D *376:I 0.000167694
85 *1466:D *1346:A1 6.72555e-05
86 *1475:I *350:I 0
87 *1498:I *1571:I 6.8199e-07
88 *4:30 *376:I 4.93689e-05
89 *7:26 *1260:I 0
90 *7:26 *239:18 0
91 *100:31 *239:97 0.00150416
92 *110:33 *239:41 0
93 *113:10 *350:I 0.000569033
94 *113:16 *350:I 4.73153e-05
95 *120:81 *376:I 3.93243e-05
96 *120:81 *239:41 0.00148169
97 *120:81 *239:83 0.000157575
98 *121:24 *448:I 0.000676812
99 *121:24 *1571:I 0.000114557
100 *122:20 *1571:I 0.000166486
101 *124:16 *376:I 9.84829e-05
102 *124:16 *239:97 0.000534299
103 *126:28 *239:97 4.55843e-06
104 *131:12 *1346:A1 0.000142293
105 *166:12 *1346:A1 9.73572e-05
106 *166:22 *350:I 0
107 *166:22 *1260:I 0.0034907
108 *166:22 *1346:A1 0
109 *166:22 *239:12 0
110 *166:22 *239:18 0.00250283
111 *208:279 *350:I 0
112 *208:399 *376:I 2.06289e-05
113 *212:28 *350:I 0.000160438
114 *213:21 *350:I 6.77125e-06
115 *219:18 *402:I 0.000115388
116 *228:24 *350:I 0.00013467
117 *229:22 *239:41 9.49507e-05
118 *231:10 *239:47 1.97285e-06
119 *231:10 *239:97 0.000317031
120 *235:18 *1571:I 7.20938e-05
*RES
1 *1445:Q *239:12 20.988 
2 *239:12 *239:18 7.63299 
3 *239:18 *1260:I 22.0165 
4 *239:18 *239:41 35.0797 
5 *239:41 *239:47 14.512 
6 *239:47 *350:I 40.644 
7 *239:47 *1346:A1 17.764 
8 *239:41 *239:83 1.352 
9 *239:83 *239:97 27.256 
10 *239:97 *1571:I 36.124 
11 *239:97 *448:I 6.476 
12 *239:83 *376:I 14.852 
13 *239:12 *402:I 13.812 
*END

*D_NET *240 0.0200094
*CONN
*I *1349:A1 I *D gf180mcu_fd_sc_mcu7t5v0__nand2_1
*I *1572:I I *D gf180mcu_fd_sc_mcu7t5v0__buf_2
*I *1261:I I *D gf180mcu_fd_sc_mcu7t5v0__clkinv_1
*I *1446:Q O *D gf180mcu_fd_sc_mcu7t5v0__dffrnq_1
*CAP
1 *1349:A1 0.00241327
2 *1572:I 0.000711035
3 *1261:I 3.6366e-05
4 *1446:Q 0.00045939
5 *240:23 0.00433905
6 *240:12 0.0017105
7 *1349:A1 *1248:I 0.000152007
8 *1349:A1 *1305:A2 0
9 *1349:A1 *1305:B 0.000699142
10 *1349:A1 *1349:A2 2.12609e-05
11 *1349:A1 *1375:A3 0
12 *1349:A1 *1407:A2 0.000247007
13 *1349:A1 *1462:RN 5.734e-05
14 *1349:A1 *272:117 1.07369e-05
15 *1349:A1 *272:125 4.67771e-06
16 *1349:A1 *290:188 0.00229668
17 *1349:A1 *310:16 4.15523e-05
18 *1349:A1 *312:29 0.000263467
19 *240:12 *243:21 2.15783e-05
20 *240:12 *291:10 0.000259426
21 *240:12 *291:18 8.87721e-05
22 *240:12 *291:44 0
23 *240:12 *312:29 0.00015629
24 *240:23 *1264:I 0
25 *240:23 *1427:SETN 0.000704167
26 *240:23 *1428:RN 0.000242137
27 *240:23 *1445:RN 6.59611e-05
28 *240:23 *291:79 0.000406972
29 *422:I *1572:I 6.0892e-08
30 *1301:A2 *1349:A1 1.21365e-05
31 *1325:A4 *1349:A1 0.000578427
32 *1341:A3 *1349:A1 3.61799e-05
33 *1350:B *240:23 0
34 *1398:S *240:23 0
35 *1399:A1 *240:23 2.2e-05
36 *1400:A2 *1572:I 0.000141361
37 *1400:B2 *1349:A1 0.000406513
38 *1400:B2 *1572:I 0.000439414
39 *1415:B *1349:A1 5.01057e-05
40 *1428:CLK *1572:I 0.000245726
41 *1477:I *240:23 0
42 *1502:I *1349:A1 4.4504e-06
43 *1519:I *240:23 2.20181e-05
44 *94:37 *240:23 0
45 *123:45 *1349:A1 0
46 *159:12 *1349:A1 0.000495242
47 *159:41 *1349:A1 0.00060621
48 *168:10 *1349:A1 0.000242777
49 *208:19 *1572:I 6.66805e-05
50 *208:85 *1349:A1 0.000172129
51 *208:85 *1572:I 0.000267182
52 *208:85 *240:23 0
53 *230:39 *1349:A1 1.46644e-05
54 *230:39 *1572:I 0.000596613
55 *239:12 *240:12 0.000180737
*RES
1 *1446:Q *240:12 17.66 
2 *240:12 *1261:I 4.812 
3 *240:12 *240:23 12.716 
4 *240:23 *1572:I 15.24 
5 *240:23 *1349:A1 32.192 
*END

*D_NET *241 0.0519983
*CONN
*I *405:I I *D gf180mcu_fd_sc_mcu7t5v0__antenna
*I *351:I I *D gf180mcu_fd_sc_mcu7t5v0__antenna
*I *383:I I *D gf180mcu_fd_sc_mcu7t5v0__antenna
*I *1352:A1 I *D gf180mcu_fd_sc_mcu7t5v0__nand2_1
*I *449:I I *D gf180mcu_fd_sc_mcu7t5v0__antenna
*I *1573:I I *D gf180mcu_fd_sc_mcu7t5v0__buf_2
*I *1262:I I *D gf180mcu_fd_sc_mcu7t5v0__clkinv_1
*I *1447:Q O *D gf180mcu_fd_sc_mcu7t5v0__dffrnq_1
*CAP
1 *405:I 0.000693634
2 *351:I 0.000162779
3 *383:I 6.07708e-05
4 *1352:A1 0.000701063
5 *449:I 0
6 *1573:I 0.000154277
7 *1262:I 0.000905453
8 *1447:Q 8.31687e-05
9 *241:119 0.00141163
10 *241:111 0.00258184
11 *241:88 0.00375891
12 *241:62 0.0052408
13 *241:31 0.00279172
14 *241:6 0.00106855
15 *351:I *401:I 0.000164116
16 *351:I *1393:S 5.12872e-06
17 *351:I *324:23 0.00012211
18 *405:I *404:I 0
19 *405:I *1314:A1 1.19638e-05
20 *405:I *1385:I0 0.000674933
21 *405:I *314:16 0
22 *1262:I *1304:A1 0.000561908
23 *1262:I *1304:A2 1.84539e-05
24 *1262:I *1364:A1 0.000283521
25 *1262:I *1595:I 0
26 *1262:I *265:38 0.000151402
27 *1262:I *281:43 0.000821169
28 *1262:I *296:61 3.62815e-05
29 *1352:A1 *272:186 0.000330471
30 *1352:A1 *325:8 0.000121032
31 *1352:A1 *325:12 1.57138e-05
32 *241:62 *404:I 0
33 *241:62 *1271:A1 0.000182829
34 *241:62 *1350:C 0.000372849
35 *241:62 *1385:I1 8.35594e-05
36 *241:62 *1386:I0 0.000358241
37 *241:62 *1386:I1 0.00162128
38 *241:62 *1436:RN 0.00188446
39 *241:62 *1459:SETN 0.000615973
40 *241:62 *269:65 0.000406983
41 *241:62 *328:10 3.97521e-06
42 *241:62 *328:16 3.08296e-05
43 *241:62 *328:43 4.62207e-05
44 *241:62 *331:10 0.00012278
45 *241:88 *450:I 0.00011904
46 *241:88 *1324:A1 0.000415971
47 *241:88 *1387:I1 0.000478161
48 *241:88 *269:65 1.91879e-05
49 *241:88 *269:69 5.43267e-05
50 *241:111 *364:I 0.000256274
51 *241:111 *409:I 0.000418865
52 *241:111 *451:I 0.000133315
53 *241:111 *1391:I0 3.7075e-05
54 *241:111 *1442:RN 4.18042e-05
55 *241:111 *274:155 3.7145e-05
56 *241:119 *401:I 0.00019118
57 *241:119 *1434:RN 0.000158673
58 *241:119 *1561:I 0.000181756
59 *241:119 *296:116 0.0021219
60 *241:119 *324:23 0.000492699
61 dac_p[2] *1262:I 0.000315966
62 dac_p[2] *241:6 0.000529809
63 dout[1] *405:I 6.7406e-05
64 samp_bot *1262:I 0
65 *382:I *1352:A1 1.35329e-05
66 *385:I *383:I 8.11931e-06
67 *385:I *241:119 7.93412e-05
68 *417:I *241:111 0.000165218
69 *424:I *241:88 1.39428e-05
70 *1251:I *1352:A1 0.000112144
71 *1277:A3 *1352:A1 5.35623e-05
72 *1306:A1 *241:62 4.58772e-05
73 *1306:A1 *241:88 0.000334537
74 *1320:B *241:88 0.0030986
75 *1324:A2 *241:88 0.000798868
76 *1324:B *241:88 7.37094e-05
77 *1324:B *241:111 0.000189434
78 *1335:B *241:111 0.000193625
79 *1348:A2 *1262:I 6.74933e-05
80 *1351:A2 *1262:I 0
81 *1354:B *241:31 0.000501755
82 *1354:B *241:62 0.00117428
83 *1386:S *405:I 0.000507531
84 *1386:S *241:62 0.000346828
85 *1415:A1 *1352:A1 2.50553e-05
86 *1416:D *241:62 6.18147e-05
87 *1426:D *1262:I 5.57504e-05
88 *1426:D *1573:I 4.35871e-05
89 *1426:CLK *1262:I 0.000473868
90 *1426:CLK *241:6 0.000140812
91 *1436:D *241:62 0.00272896
92 *1437:D *241:62 1.51173e-05
93 *1439:D *241:88 0.0001456
94 *1446:D *1262:I 6.50665e-06
95 *1446:D *241:31 0.000118716
96 *1446:D *241:62 0.000621886
97 *1447:D *1262:I 0.000321077
98 *1448:CLK *1262:I 0
99 *1456:D *241:6 0.000285252
100 *1459:CLK *1573:I 0.000133648
101 *1537:I *241:62 0.000986425
102 *99:12 *1352:A1 5.78246e-05
103 *146:30 *241:88 3.94467e-05
104 *146:30 *241:111 0.000888262
105 *170:55 *241:119 0.000184793
106 *191:20 *241:62 3.57634e-06
107 *191:20 *241:88 0.000189275
108 *191:34 *241:111 0.000633194
109 *208:205 *241:88 7.60808e-05
110 *208:215 *241:88 0.000151966
111 *208:229 *241:88 9.76236e-05
112 *208:241 *241:88 0.000383927
113 *208:241 *241:111 0.0001656
114 *212:28 *241:111 5.65061e-06
115 *213:6 *241:111 5.04839e-05
116 *213:8 *241:111 3.44314e-05
117 *219:10 *241:62 0.000336402
118 *220:17 *241:62 2.35016e-05
119 *232:56 *405:I 4.19992e-07
*RES
1 *1447:Q *241:6 6.06 
2 *241:6 *1262:I 23.484 
3 *241:6 *241:31 5.852 
4 *241:31 *1573:I 10.144 
5 *241:31 *241:62 49.304 
6 *241:62 *241:88 35.964 
7 *241:88 *449:I 4.5 
8 *241:88 *241:111 38.1 
9 *241:111 *241:119 12.924 
10 *241:119 *1352:A1 18.492 
11 *241:119 *383:I 4.812 
12 *241:111 *351:I 10.664 
13 *241:62 *405:I 15.552 
*END

*D_NET *242 0.0155058
*CONN
*I *1535:I I *D gf180mcu_fd_sc_mcu7t5v0__dlyb_1
*I *1529:I I *D gf180mcu_fd_sc_mcu7t5v0__dlyb_1
*I *1540:Z O *D gf180mcu_fd_sc_mcu7t5v0__dlyb_1
*CAP
1 *1535:I 0.000718752
2 *1529:I 0.00364996
3 *1540:Z 0
4 *242:6 0.00436871
5 *1529:I *1250:I 0
6 *1529:I *1299:A1 7.38008e-06
7 *1529:I *1299:A2 8.44565e-06
8 *1529:I *345:25 0.000463061
9 *1529:I *345:40 0.0033147
10 *1535:I *1587:I 0
11 *1535:I *1590:I 0.00065976
12 dout[9] *1535:I 8.55595e-05
13 *442:I *1535:I 0.000182894
14 *1410:A1 *1529:I 0.000103788
15 *1410:A2 *1529:I 9.7618e-05
16 *1412:B1 *1529:I 0.000575233
17 *1488:I *1529:I 0.000729802
18 *1569:I *1529:I 0.00016582
19 *40:13 *1529:I 5.57205e-05
20 *40:13 *1535:I 0.000107581
21 *98:12 *1529:I 0.000211057
*RES
1 *1540:Z *242:6 9 
2 *242:6 *1529:I 47.12 
3 *242:6 *1535:I 15.24 
*END

*D_NET *243 0.042686
*CONN
*I *450:I I *D gf180mcu_fd_sc_mcu7t5v0__antenna
*I *407:I I *D gf180mcu_fd_sc_mcu7t5v0__antenna
*I *1355:A1 I *D gf180mcu_fd_sc_mcu7t5v0__nand2_1
*I *387:I I *D gf180mcu_fd_sc_mcu7t5v0__antenna
*I *1263:I I *D gf180mcu_fd_sc_mcu7t5v0__clkinv_1
*I *352:I I *D gf180mcu_fd_sc_mcu7t5v0__antenna
*I *1574:I I *D gf180mcu_fd_sc_mcu7t5v0__buf_2
*I *1448:Q O *D gf180mcu_fd_sc_mcu7t5v0__dffrnq_1
*CAP
1 *450:I 0.000541955
2 *407:I 0
3 *1355:A1 0.000292598
4 *387:I 0
5 *1263:I 0
6 *352:I 0
7 *1574:I 0.000437206
8 *1448:Q 0.000239212
9 *243:101 0.000833799
10 *243:79 0.00426313
11 *243:67 0.00628473
12 *243:36 0.00242725
13 *243:21 0.00159599
14 *243:8 0.0018675
15 *450:I *1390:S 4.10234e-05
16 *450:I *1557:I 0.00137681
17 *450:I *274:159 0.000103765
18 *450:I *284:12 7.16472e-05
19 *1355:A1 *369:I 2.81522e-06
20 *1574:I *1271:A1 0.00114778
21 *1574:I *1575:I 0.000124093
22 *243:8 *1575:I 0.000463671
23 *243:21 *404:I 0.000266789
24 *243:21 *1271:A1 0.000966381
25 *243:21 *1445:RN 0.00273781
26 *243:21 *1456:RN 0.00024209
27 *243:21 *291:10 5.09816e-05
28 *243:21 *308:18 6.86302e-05
29 *243:21 *328:16 0.00104498
30 *243:36 *404:I 3.2485e-05
31 *243:36 *291:44 0.000214263
32 *243:36 *328:10 0.00041636
33 *243:36 *328:16 0.000752567
34 *243:67 *1321:A1 0.000455184
35 *243:67 *1328:A1 0.000165225
36 *243:67 *1331:A1 0.000456562
37 *243:67 *1353:C 0.000194598
38 *243:67 *1356:A1 0.000103788
39 *243:67 *1365:A2 0.000101049
40 *243:67 *266:20 0.000780913
41 *243:67 *298:106 0.000270686
42 *243:67 *336:16 4.04741e-05
43 *243:67 *336:31 5.76667e-05
44 *243:79 *367:I 1.03327e-05
45 *243:79 *369:I 5.53272e-05
46 *243:79 *1323:A1 2.71048e-06
47 *243:79 *1393:S 1.823e-05
48 *243:79 *276:203 0.000232939
49 *243:79 *276:216 7.47787e-05
50 *243:79 *276:220 1.60428e-05
51 *243:79 *298:106 0.000559739
52 *243:101 *355:I 0.00011582
53 *243:101 *1328:A1 0.000120456
54 *243:101 *298:106 0.00138567
55 *353:I *243:36 8.01587e-05
56 *386:I *1355:A1 0.000687729
57 *419:I *1355:A1 2.04597e-06
58 *1325:A1 *243:67 0.00095263
59 *1329:A3 *243:67 0.00114148
60 *1353:B1 *243:67 0.000112832
61 *1357:A2 *243:67 0.000360772
62 *1398:I1 *243:21 0.000256135
63 *1426:D *243:8 5.18939e-05
64 *1441:D *450:I 0.000123502
65 *1456:D *1574:I 0
66 *1459:D *243:21 5.68712e-05
67 *1537:I *243:21 3.41124e-05
68 *1544:I *243:67 0.000323254
69 *47:20 *1574:I 7.80235e-06
70 *47:20 *243:21 6.6799e-05
71 *108:43 *243:67 0.000178865
72 *109:24 *1574:I 0.000250495
73 *109:24 *243:21 0
74 *140:12 *243:67 0.000105797
75 *146:30 *243:79 2.46866e-05
76 *147:22 *243:67 0.000256274
77 *170:26 *243:67 0.000376485
78 *172:20 *243:67 0.000125262
79 *172:20 *243:79 0.000565634
80 *172:57 *1355:A1 0.000393533
81 *205:25 *243:67 0.000106771
82 *208:241 *450:I 0.000109435
83 *209:6 *243:8 0.000137373
84 *219:10 *243:36 4.69556e-05
85 *219:10 *243:67 4.56385e-06
86 *230:39 *243:36 2.81522e-06
87 *230:39 *243:67 0.00147596
88 *239:12 *243:21 0
89 *240:12 *243:21 2.15783e-05
90 *241:88 *450:I 0.00011904
*RES
1 *1448:Q *243:8 11.184 
2 *243:8 *1574:I 12.952 
3 *243:8 *243:21 14.248 
4 *243:21 *352:I 9 
5 *243:21 *243:36 8.972 
6 *243:36 *1263:I 4.5 
7 *243:36 *243:67 27.38 
8 *243:67 *243:79 34.196 
9 *243:79 *387:I 4.5 
10 *243:79 *1355:A1 16.204 
11 *243:67 *243:101 8.348 
12 *243:101 *407:I 4.5 
13 *243:101 *450:I 19.22 
*END

*D_NET *244 0.0153259
*CONN
*I *1358:A1 I *D gf180mcu_fd_sc_mcu7t5v0__nand2_1
*I *1264:I I *D gf180mcu_fd_sc_mcu7t5v0__clkinv_1
*I *1575:I I *D gf180mcu_fd_sc_mcu7t5v0__buf_2
*I *1449:Q O *D gf180mcu_fd_sc_mcu7t5v0__dffrnq_1
*CAP
1 *1358:A1 0
2 *1264:I 0.00130445
3 *1575:I 0.000977816
4 *1449:Q 0
5 *244:39 0.00191814
6 *244:4 0.00159151
7 *1264:I *291:79 0
8 *1264:I *293:54 0
9 *1264:I *301:10 0.000312373
10 *1575:I *1271:A1 5.35294e-06
11 *1575:I *1361:A1 0.000757017
12 *1575:I *265:38 0.000207961
13 *1575:I *281:29 1.56603e-05
14 *1575:I *281:35 0.000182634
15 *1575:I *296:46 7.29541e-06
16 *244:39 *1361:A1 0.00026679
17 *244:39 *1373:B 0.000126178
18 *244:39 *1549:I 0.000971178
19 *244:39 *272:46 0.000111459
20 *244:39 *301:10 0.000419029
21 *1357:A2 *1264:I 0.00174262
22 *1357:A2 *244:39 0.000450599
23 *1374:B1 *244:39 0.000101557
24 *1398:I1 *1264:I 1.40331e-05
25 *1398:I1 *244:39 5.63044e-06
26 *1400:A1 *1264:I 4.73146e-05
27 *1426:D *1575:I 0.000512399
28 *1426:D *244:39 9.96089e-05
29 *1448:CLK *1575:I 6.19436e-06
30 *1470:I *1264:I 5.63044e-06
31 *1470:I *244:39 6.40834e-05
32 *1574:I *1575:I 0.000124093
33 *47:20 *1575:I 0.00183945
34 *94:37 *1264:I 0.000550783
35 *135:20 *244:39 1.07369e-05
36 *175:16 *244:39 7.49402e-05
37 *209:6 *1575:I 3.77559e-05
38 *240:23 *1264:I 0
39 *243:8 *1575:I 0.000463671
*RES
1 *1449:Q *244:4 4.5 
2 *244:4 *1575:I 24.42 
3 *244:4 *244:39 24.656 
4 *244:39 *1264:I 23.588 
5 *244:39 *1358:A1 4.5 
*END

*D_NET *245 0.0103814
*CONN
*I *1576:I I *D gf180mcu_fd_sc_mcu7t5v0__buf_2
*I *1361:A1 I *D gf180mcu_fd_sc_mcu7t5v0__nand2_1
*I *1265:I I *D gf180mcu_fd_sc_mcu7t5v0__clkinv_1
*I *1450:Q O *D gf180mcu_fd_sc_mcu7t5v0__dffrnq_1
*CAP
1 *1576:I 0
2 *1361:A1 0.00035432
3 *1265:I 0.00166368
4 *1450:Q 0
5 *245:31 0.000632734
6 *245:4 0.00194209
7 *1265:I *349:I 0.00016276
8 *1265:I *1366:A1 5.38485e-05
9 *1265:I *1548:I 0.000118867
10 *1265:I *246:14 0.000242269
11 *1265:I *273:61 1.90528e-05
12 *1265:I *280:31 0
13 *1361:A1 *1448:RN 0.00126918
14 *1361:A1 *1449:RN 5.01895e-06
15 *245:31 *1448:RN 6.86024e-05
16 *245:31 *1449:RN 5.63044e-06
17 *245:31 *1548:I 0.000284219
18 *245:31 *246:14 4.96201e-05
19 dac_p[5] *245:31 0.000129493
20 dac_p[7] *1265:I 0
21 dac_p[8] *1265:I 0.000148044
22 *1426:D *1361:A1 1.25118e-05
23 *1493:I *1265:I 0.000277832
24 *1503:I *1265:I 9.78e-05
25 *1564:I *1265:I 0
26 *1575:I *1361:A1 0.000757017
27 *94:16 *1361:A1 0.000163364
28 *168:22 *1361:A1 0.00041388
29 *206:22 *1265:I 0.0011736
30 *209:6 *1361:A1 1.25417e-05
31 *230:39 *1265:I 0
32 *235:18 *1265:I 5.66761e-05
33 *244:39 *1361:A1 0.00026679
*RES
1 *1450:Q *245:4 4.5 
2 *245:4 *1265:I 25.356 
3 *245:4 *245:31 2.808 
4 *245:31 *1361:A1 18.7 
5 *245:31 *1576:I 4.5 
*END

*D_NET *246 0.0134568
*CONN
*I *1577:I I *D gf180mcu_fd_sc_mcu7t5v0__buf_2
*I *1364:A1 I *D gf180mcu_fd_sc_mcu7t5v0__nand2_1
*I *1266:I I *D gf180mcu_fd_sc_mcu7t5v0__clkinv_1
*I *1451:Q O *D gf180mcu_fd_sc_mcu7t5v0__dffrnq_1
*CAP
1 *1577:I 0
2 *1364:A1 0.000176796
3 *1266:I 0.000261242
4 *1451:Q 0.00101075
5 *246:39 0.000691564
6 *246:14 0.00178676
7 *1364:A1 *1364:A2 1.23682e-05
8 *1364:A1 *281:43 5.78216e-06
9 *1364:A1 *319:16 3.22441e-06
10 *246:14 *1360:A1 0.00013468
11 *246:14 *1449:RN 0.000615011
12 *246:14 *272:31 0.000371558
13 *246:14 *273:61 0.000138554
14 *246:14 *281:10 8.29207e-05
15 *246:14 *299:17 0.000854692
16 *246:39 *1578:I 0.00129464
17 *246:39 *1579:I 8.48781e-05
18 dac_p[1] *1266:I 4.71802e-05
19 dac_p[1] *246:14 0.000128038
20 dac_p[4] *1266:I 0.000104077
21 dac_p[4] *246:14 1.5994e-05
22 dac_p[4] *246:39 6.28076e-05
23 dac_p[5] *246:14 0.000382817
24 samp_bot *1364:A1 0
25 *1262:I *1364:A1 0.000283521
26 *1265:I *246:14 0.000242269
27 *1351:B *1364:A1 0.000289026
28 *1351:B *246:39 0.0010918
29 *1357:A2 *246:14 0.00029237
30 *1360:B *246:14 2.42194e-05
31 *1366:B *1364:A1 0.000754475
32 *1366:B *246:39 0.000150479
33 *1373:A2 *246:14 0.000450705
34 *1493:I *246:14 0.000121945
35 *120:12 *246:39 0.00104564
36 *120:18 *246:39 0.000278974
37 *235:18 *1266:I 0.000115388
38 *245:31 *246:14 4.96201e-05
*RES
1 *1451:Q *246:14 19.816 
2 *246:14 *1266:I 10.56 
3 *246:14 *246:39 21.508 
4 *246:39 *1364:A1 16.62 
5 *246:39 *1577:I 4.5 
*END

*D_NET *247 0.0162061
*CONN
*I *1367:A1 I *D gf180mcu_fd_sc_mcu7t5v0__nand2_1
*I *1578:I I *D gf180mcu_fd_sc_mcu7t5v0__buf_2
*I *1267:I I *D gf180mcu_fd_sc_mcu7t5v0__clkinv_1
*I *1452:Q O *D gf180mcu_fd_sc_mcu7t5v0__dffrnq_1
*CAP
1 *1367:A1 0.000672943
2 *1578:I 0.000692111
3 *1267:I 0.000224231
4 *1452:Q 0
5 *247:24 0.00182543
6 *247:4 0.00158203
7 *1267:I *349:I 2.38064e-06
8 *1367:A1 *1367:A2 0.00033778
9 *1367:A1 *248:10 0.000194522
10 *1367:A1 *319:16 0.000116384
11 *1578:I *248:16 0.000549635
12 *247:24 *349:I 0.000931484
13 *247:24 *1269:I 7.75811e-06
14 *247:24 *249:12 0.000264215
15 *247:24 *273:61 3.17186e-05
16 dac_n[0] *1367:A1 0.000183852
17 dac_n[3] *1367:A1 0.000113027
18 dac_p[5] *1267:I 1.08757e-05
19 dac_p[5] *247:24 2.51067e-05
20 dac_p[6] *1267:I 3.74121e-06
21 dac_p[7] *247:24 0.000525466
22 dac_p[8] *247:24 0.000230477
23 dac_p[9] *247:24 0.000500761
24 *1366:B *1578:I 0.00079498
25 *1451:CLK *247:24 0.000337172
26 *1564:I *247:24 0.000146044
27 *1566:I *1367:A1 0.00347919
28 *1566:I *247:24 0.000137744
29 *47:20 *1578:I 0.00026757
30 *120:12 *1578:I 0.000242266
31 *120:18 *1578:I 4.62781e-05
32 *235:18 *1367:A1 0.000214703
33 *235:18 *247:24 0.000219542
34 *246:39 *1578:I 0.00129464
*RES
1 *1452:Q *247:4 4.5 
2 *247:4 *247:24 23.796 
3 *247:24 *1267:I 9.936 
4 *247:24 *1578:I 26.944 
5 *247:4 *1367:A1 14.276 
*END

*D_NET *248 0.0418188
*CONN
*I *393:I I *D gf180mcu_fd_sc_mcu7t5v0__antenna
*I *451:I I *D gf180mcu_fd_sc_mcu7t5v0__antenna
*I *354:I I *D gf180mcu_fd_sc_mcu7t5v0__antenna
*I *1268:I I *D gf180mcu_fd_sc_mcu7t5v0__clkinv_1
*I *408:I I *D gf180mcu_fd_sc_mcu7t5v0__antenna
*I *1579:I I *D gf180mcu_fd_sc_mcu7t5v0__buf_2
*I *1370:A1 I *D gf180mcu_fd_sc_mcu7t5v0__nand2_1
*I *1453:Q O *D gf180mcu_fd_sc_mcu7t5v0__dffrnq_1
*CAP
1 *393:I 2.98666e-05
2 *451:I 0.000410388
3 *354:I 0.000229372
4 *1268:I 0
5 *408:I 0
6 *1579:I 0.000365227
7 *1370:A1 0.000105244
8 *1453:Q 0.000208655
9 *248:89 0.0014249
10 *248:71 0.00168318
11 *248:65 0.00656391
12 *248:48 0.00451886
13 *248:16 0.00145861
14 *248:10 0.0015902
15 *354:I *272:186 0
16 *393:I *1442:RN 1.60338e-05
17 *451:I *337:29 0.000704917
18 *1370:A1 *273:61 1.54195e-05
19 *1579:I *273:61 2.71527e-05
20 *248:16 *1599:I 0.000935579
21 *248:48 *363:I 0.00057304
22 *248:48 *1269:I 0.00119459
23 *248:48 *1367:A2 9.41403e-06
24 *248:48 *1548:I 7.65008e-05
25 *248:48 *342:30 5.47431e-06
26 *248:65 *1269:I 0.000371773
27 *248:65 *1288:B 0.000197085
28 *248:65 *1290:A1 0.000163292
29 *248:65 *1296:A1 0.000104594
30 *248:65 *1462:RN 0.00080165
31 *248:65 *1466:RN 5.44144e-05
32 *248:65 *1522:I 0.000160918
33 *248:65 *1548:I 8.33895e-05
34 *248:65 *298:14 0.00238506
35 *248:71 *272:78 0.00351521
36 *248:71 *272:186 0.00049676
37 *248:89 *1514:I 0
38 *248:89 *284:24 9.84747e-05
39 *248:89 *337:29 0.000172702
40 *248:89 *338:28 4.60967e-05
41 dac_n[0] *248:10 6.8763e-06
42 dac_p[4] *1579:I 0.000132978
43 dac_p[7] *1579:I 0.000268116
44 *350:I *451:I 0
45 *350:I *248:65 0
46 *350:I *248:89 0
47 *360:I *354:I 7.12475e-05
48 *419:I *354:I 1.38844e-05
49 *419:I *248:71 0
50 *1277:A3 *354:I 1.11104e-05
51 *1278:A2 *248:65 1.17813e-05
52 *1280:A3 *248:65 2.99866e-05
53 *1324:B *393:I 4.18042e-05
54 *1340:A2 *248:65 0.000980838
55 *1340:A2 *248:89 0.000361417
56 *1340:B *248:65 3.09273e-05
57 *1343:A2 *248:65 9.67323e-06
58 *1343:A2 *248:71 0.000356642
59 *1343:A2 *248:89 3.22441e-06
60 *1360:B *1579:I 3.05273e-05
61 *1366:B *1579:I 5.25412e-05
62 *1367:A1 *248:10 0.000194522
63 *1369:A2 *248:65 0.000126031
64 *1369:B *248:65 0
65 *1372:B *1370:A1 4.26091e-05
66 *1372:B *1579:I 7.96736e-05
67 *1372:B *248:48 2.42397e-05
68 *1377:A2 *248:65 0.000372843
69 *1407:C *248:65 0.000129835
70 *1425:D *451:I 1.5727e-06
71 *1425:D *248:89 0.000430705
72 *1443:D *248:89 5.10175e-05
73 *1443:CLK *248:89 0
74 *1449:CLK *1579:I 0.000185204
75 *1455:D *248:65 4.04148e-05
76 *1487:I *1579:I 0.000408707
77 *1499:I *248:65 0.000228545
78 *1578:I *248:16 0.000549635
79 *47:20 *248:16 0.00512192
80 *120:12 *248:16 0.000150393
81 *120:67 *248:48 2.61971e-06
82 *122:20 *248:48 0
83 *213:21 *451:I 8.58459e-05
84 *213:21 *248:89 0
85 *227:31 *354:I 0.000106582
86 *235:18 *248:10 5.61634e-05
87 *241:111 *451:I 0.000133315
88 *246:39 *1579:I 8.48781e-05
*RES
1 *1453:Q *248:10 10.248 
2 *248:10 *248:16 22.832 
3 *248:16 *1370:A1 9.52 
4 *248:16 *1579:I 13.056 
5 *248:10 *248:48 9.076 
6 *248:48 *408:I 4.5 
7 *248:48 *248:65 35.18 
8 *248:65 *248:71 21.584 
9 *248:71 *1268:I 9 
10 *248:71 *354:I 10.976 
11 *248:65 *248:89 6.968 
12 *248:89 *451:I 21.536 
13 *248:89 *393:I 9.312 
*END

*D_NET *249 0.00769684
*CONN
*I *1269:I I *D gf180mcu_fd_sc_mcu7t5v0__clkinv_1
*I *1580:I I *D gf180mcu_fd_sc_mcu7t5v0__buf_2
*I *1454:Q O *D gf180mcu_fd_sc_mcu7t5v0__dffrnq_1
*CAP
1 *1269:I 0.000583755
2 *1580:I 0
3 *1454:Q 0.000276184
4 *249:12 0.000859939
5 *1269:I *349:I 0.000364318
6 *1269:I *363:I 0.000216887
7 *1269:I *1454:RN 0.000494587
8 *1269:I *1548:I 2.35898e-05
9 *1269:I *297:26 2.70592e-05
10 *1269:I *304:12 0.000256274
11 *1269:I *304:14 0.00110452
12 *249:12 *349:I 2.89755e-05
13 dac_p[7] *249:12 0
14 dac_p[8] *249:12 6.39463e-05
15 *1564:I *1269:I 0.000253987
16 *1564:I *249:12 0.000406983
17 *1567:I *1269:I 0.000638345
18 *120:67 *1269:I 0.00025916
19 *247:24 *1269:I 7.75811e-06
20 *247:24 *249:12 0.000264215
21 *248:48 *1269:I 0.00119459
22 *248:65 *1269:I 0.000371773
*RES
1 *1454:Q *249:12 15.788 
2 *249:12 *1580:I 4.5 
3 *249:12 *1269:I 23.484 
*END

*D_NET *250 0.00368133
*CONN
*I *1385:I0 I *D gf180mcu_fd_sc_mcu7t5v0__mux2_2
*I *1581:I I *D gf180mcu_fd_sc_mcu7t5v0__buf_2
*I *1416:Q O *D gf180mcu_fd_sc_mcu7t5v0__dffrnq_1
*CAP
1 *1385:I0 0.000561614
2 *1581:I 0.000335799
3 *1416:Q 0
4 *250:4 0.000897414
5 *1385:I0 *404:I 0.000196009
6 *1385:I0 *285:51 0
7 *1385:I0 *289:53 0.000394241
8 *1385:I0 *314:6 0
9 *1581:I *289:38 0.000193364
10 *1581:I *289:53 0.000297732
11 *1581:I *314:6 0
12 dout[1] *1581:I 8.80888e-05
13 *405:I *1385:I0 0.000674933
14 *232:56 *1385:I0 4.21338e-05
*RES
1 *1416:Q *250:4 4.5 
2 *250:4 *1581:I 7.932 
3 *250:4 *1385:I0 19.324 
*END

*D_NET *251 0.0043411
*CONN
*I *1386:I0 I *D gf180mcu_fd_sc_mcu7t5v0__mux2_2
*I *1582:I I *D gf180mcu_fd_sc_mcu7t5v0__buf_2
*I *1417:Q O *D gf180mcu_fd_sc_mcu7t5v0__dffrnq_1
*CAP
1 *1386:I0 0.000396552
2 *1582:I 0.000310291
3 *1417:Q 0
4 *251:4 0.000706844
5 *1386:I0 *1314:A1 0.000206817
6 *1386:I0 *1385:I1 0.00046333
7 *1386:I0 *314:16 0.000577255
8 *1582:I *366:I 0.000427061
9 *1582:I *285:51 0.00058855
10 *1582:I *314:16 0.000220486
11 *1386:S *1386:I0 2.71502e-05
12 *191:20 *1386:I0 5.85255e-05
13 *241:62 *1386:I0 0.000358241
*RES
1 *1417:Q *251:4 4.5 
2 *251:4 *1582:I 16.516 
3 *251:4 *1386:I0 18.492 
*END

*D_NET *252 0.00266407
*CONN
*I *1583:I I *D gf180mcu_fd_sc_mcu7t5v0__buf_2
*I *1387:I0 I *D gf180mcu_fd_sc_mcu7t5v0__mux2_2
*I *1418:Q O *D gf180mcu_fd_sc_mcu7t5v0__dffrnq_1
*CAP
1 *1583:I 0.000157647
2 *1387:I0 0.000255719
3 *1418:Q 0.000390522
4 *252:10 0.000803887
5 *1387:I0 *404:I 0
6 *1583:I *285:51 0.000249992
7 *252:10 *396:I 0.00033778
8 *252:10 *404:I 0
9 *252:10 *1556:I 0.00033778
10 dout[2] *1583:I 7.03199e-05
11 dout[2] *252:10 5.76078e-05
12 dout[3] *1583:I 2.81522e-06
*RES
1 *1418:Q *252:10 12.328 
2 *252:10 *1387:I0 10.56 
3 *252:10 *1583:I 10.768 
*END

*D_NET *253 0.0124204
*CONN
*I *1522:I I *D gf180mcu_fd_sc_mcu7t5v0__dlyb_1
*I *1521:I I *D gf180mcu_fd_sc_mcu7t5v0__buf_2
*I *1541:Z O *D gf180mcu_fd_sc_mcu7t5v0__dlyb_1
*CAP
1 *1522:I 0.000353378
2 *1521:I 0.0015387
3 *1541:Z 0.00362737
4 *253:10 0.00551945
5 *1521:I *1305:B 6.18259e-05
6 *1521:I *1550:I 0.000187545
7 *1521:I *274:47 2.34864e-05
8 *1521:I *276:14 0.00073854
9 *1369:A2 *1522:I 2.89059e-05
10 *96:12 *1521:I 0.000180258
11 *248:65 *1522:I 0.000160918
*RES
1 *1541:Z *253:10 28.58 
2 *253:10 *1521:I 21.508 
3 *253:10 *1522:I 15.892 
*END

*D_NET *254 0.00585743
*CONN
*I *1388:I0 I *D gf180mcu_fd_sc_mcu7t5v0__mux2_2
*I *1584:I I *D gf180mcu_fd_sc_mcu7t5v0__buf_2
*I *1419:Q O *D gf180mcu_fd_sc_mcu7t5v0__dffrnq_1
*CAP
1 *1388:I0 0
2 *1584:I 0.000220589
3 *1419:Q 0.000746092
4 *254:12 0.000966681
5 *1584:I *392:I 0.000355296
6 *1584:I *285:51 0.00104843
7 *254:12 *366:I 0.00146535
8 *254:12 *392:I 0.000581282
9 *254:12 *1420:RN 7.16013e-05
10 *254:12 *1556:I 5.9396e-05
11 dout[2] *254:12 0
12 dout[3] *1584:I 0.000119321
13 *1387:S *1584:I 0.00019118
14 *232:18 *1584:I 3.22108e-05
*RES
1 *1419:Q *254:12 16.384 
2 *254:12 *1584:I 12.744 
3 *254:12 *1388:I0 9 
*END

*D_NET *255 0.00343388
*CONN
*I *1389:I0 I *D gf180mcu_fd_sc_mcu7t5v0__mux2_2
*I *1585:I I *D gf180mcu_fd_sc_mcu7t5v0__buf_2
*I *1420:Q O *D gf180mcu_fd_sc_mcu7t5v0__dffrnq_1
*CAP
1 *1389:I0 0.000141691
2 *1585:I 0.000186253
3 *1420:Q 0.000544278
4 *255:10 0.000872222
5 *1389:I0 *1419:RN 2.00197e-05
6 *1389:I0 *1420:RN 0.000104048
7 *1389:I0 *1530:I 0.00121263
8 *255:10 *1420:RN 1.77183e-05
9 dout[3] *1389:I0 0.00026796
10 dout[4] *1389:I0 3.97036e-05
11 *232:16 *1585:I 2.27921e-05
12 *232:16 *255:10 4.55843e-06
*RES
1 *1420:Q *255:10 11.912 
2 *255:10 *1585:I 9.936 
3 *255:10 *1389:I0 12.224 
*END

*D_NET *256 0.0109897
*CONN
*I *1586:I I *D gf180mcu_fd_sc_mcu7t5v0__buf_2
*I *1390:I0 I *D gf180mcu_fd_sc_mcu7t5v0__mux2_2
*I *1421:Q O *D gf180mcu_fd_sc_mcu7t5v0__dffrnq_1
*CAP
1 *1586:I 0.000335384
2 *1390:I0 0.000369997
3 *1421:Q 0.000548766
4 *256:10 0.00125415
5 *1390:I0 *1390:S 0.0034733
6 *1586:I *1513:I 0.000334704
7 *1586:I *1530:I 0.000125278
8 *1586:I *274:159 0.000149766
9 *1586:I *283:8 5.55876e-05
10 *256:10 *1390:S 8.05935e-05
11 *256:10 *1557:I 0
12 *256:10 *285:27 3.5618e-05
13 *397:I *1390:I0 0.000852595
14 *397:I *256:10 0.000919746
15 *441:I *256:10 1.47553e-05
16 *1421:D *1390:I0 0.00243946
*RES
1 *1421:Q *256:10 13.16 
2 *256:10 *1390:I0 18.672 
3 *256:10 *1586:I 12.224 
*END

*D_NET *257 0.0143505
*CONN
*I *1587:I I *D gf180mcu_fd_sc_mcu7t5v0__buf_2
*I *1391:I0 I *D gf180mcu_fd_sc_mcu7t5v0__mux2_2
*I *1422:Q O *D gf180mcu_fd_sc_mcu7t5v0__dffrnq_1
*CAP
1 *1587:I 0.00151597
2 *1391:I0 0.0013373
3 *1422:Q 0.000201013
4 *257:8 0.00305428
5 *1391:I0 *373:I 0
6 *1391:I0 *1323:A1 1.40761e-05
7 *1391:I0 *1531:I 0.000794503
8 *1391:I0 *1532:I 0.000465292
9 *1391:I0 *274:183 0
10 *1391:I0 *284:12 0.000548523
11 *1391:I0 *285:21 1.9026e-05
12 *1391:I0 *318:10 0.000478931
13 *1587:I *433:I 0.000419557
14 *1587:I *1423:RN 1.56624e-05
15 *1587:I *1588:I 0
16 *1587:I *260:12 0.000229039
17 *1587:I *285:27 0.000326789
18 *1587:I *323:16 0.00271268
19 *1587:I *326:10 0.000487648
20 *1587:I *326:23 0.000265857
21 *1587:I *326:27 2.5656e-05
22 *257:8 *373:I 0
23 *257:8 *285:21 1.25277e-05
24 dout[5] *257:8 0
25 dout[7] *1587:I 8.51959e-05
26 dout[9] *1587:I 5.60123e-05
27 *441:I *1587:I 0
28 *442:I *1587:I 0.000100568
29 *1324:B *1391:I0 0.000479475
30 *1335:B *1391:I0 0.000517592
31 *1422:D *1391:I0 3.09073e-06
32 *1535:I *1587:I 0
33 *191:34 *1391:I0 5.34672e-05
34 *208:249 *1391:I0 9.37399e-05
35 *241:111 *1391:I0 3.7075e-05
*RES
1 *1422:Q *257:8 10.144 
2 *257:8 *1391:I0 30.688 
3 *257:8 *1587:I 26.056 
*END

*D_NET *258 0.00934333
*CONN
*I *1588:I I *D gf180mcu_fd_sc_mcu7t5v0__buf_2
*I *1392:I0 I *D gf180mcu_fd_sc_mcu7t5v0__mux2_2
*I *1423:Q O *D gf180mcu_fd_sc_mcu7t5v0__dffrnq_1
*CAP
1 *1588:I 0.000598968
2 *1392:I0 0.000807014
3 *1423:Q 0.000456854
4 *258:8 0.00186284
5 *1392:I0 *1392:I1 0.000168812
6 *1392:I0 *1394:I0 0.000365964
7 *1392:I0 *260:12 1.06742e-05
8 *1392:I0 *284:24 4.67771e-06
9 *1392:I0 *284:31 2.45654e-05
10 *1588:I *1423:RN 8.57188e-05
11 *1588:I *1560:I 5.77431e-06
12 *1588:I *1590:I 0.00238746
13 *1588:I *326:27 0
14 *258:8 *260:12 0.000166612
15 dout[7] *1588:I 5.40309e-05
16 *350:I *1392:I0 0.000513007
17 *350:I *1588:I 0.000401822
18 *350:I *258:8 2.76367e-05
19 *1423:D *1392:I0 0.00135487
20 *1425:D *1392:I0 3.17907e-05
21 *1587:I *1588:I 0
22 *208:279 *1392:I0 1.42402e-05
*RES
1 *1423:Q *258:8 12.224 
2 *258:8 *1392:I0 17.528 
3 *258:8 *1588:I 16.488 
*END

*D_NET *259 0.00381774
*CONN
*I *1589:I I *D gf180mcu_fd_sc_mcu7t5v0__buf_2
*I *1393:I0 I *D gf180mcu_fd_sc_mcu7t5v0__mux2_2
*I *1424:Q O *D gf180mcu_fd_sc_mcu7t5v0__dffrnq_1
*CAP
1 *1589:I 0.000426705
2 *1393:I0 0.00142029
3 *1424:Q 0.00099359
4 *1393:I0 *1393:S 2.48965e-05
5 *1393:I0 *1423:RN 5.54189e-06
6 *1393:I0 *1533:I 9.5382e-05
7 *1393:I0 *1560:I 0.000105232
8 *1393:I0 *1590:I 0.000368731
9 *1393:I0 *323:16 4.97697e-05
10 *1393:I0 *324:23 5.03795e-05
11 *1589:I *1393:S 1.71326e-05
12 *1589:I *1533:I 0
13 *1589:I *1590:I 2.66651e-06
14 dout[7] *1393:I0 0.000185657
15 dout[8] *1589:I 7.17602e-05
*RES
1 *1424:Q *1393:I0 26.632 
2 *1393:I0 *1589:I 12.224 
*END

*D_NET *260 0.0105724
*CONN
*I *1590:I I *D gf180mcu_fd_sc_mcu7t5v0__buf_2
*I *1394:I0 I *D gf180mcu_fd_sc_mcu7t5v0__mux2_2
*I *1425:Q O *D gf180mcu_fd_sc_mcu7t5v0__dffrnq_1
*CAP
1 *1590:I 0.000787061
2 *1394:I0 0.000826798
3 *1425:Q 0.000849646
4 *260:12 0.0024635
5 *1394:I0 *1393:S 2.12695e-05
6 *1394:I0 *284:31 4.02493e-05
7 *1394:I0 *323:16 6.32467e-05
8 *1590:I *323:16 0
9 *260:12 *433:I 0.000346997
10 *260:12 *323:16 8.44547e-05
11 dout[8] *1590:I 4.79893e-05
12 *441:I *260:12 0.000160173
13 *1392:I0 *1394:I0 0.000365964
14 *1392:I0 *260:12 1.06742e-05
15 *1393:I0 *1590:I 0.000368731
16 *1474:I *1394:I0 0.000392466
17 *1535:I *1590:I 0.00065976
18 *1587:I *260:12 0.000229039
19 *1588:I *1590:I 0.00238746
20 *1589:I *1590:I 2.66651e-06
21 *146:30 *1394:I0 8.72309e-05
22 *208:279 *1394:I0 0.000210381
23 *258:8 *260:12 0.000166612
*RES
1 *1425:Q *260:12 16.176 
2 *260:12 *1394:I0 16.28 
3 *260:12 *1590:I 18.88 
*END

*D_NET *261 0.0141172
*CONN
*I *1591:I I *D gf180mcu_fd_sc_mcu7t5v0__buf_2
*I *1468:I I *D gf180mcu_fd_sc_mcu7t5v0__buf_1
*I *1467:Q O *D gf180mcu_fd_sc_mcu7t5v0__dffrnq_1
*CAP
1 *1591:I 0.000780771
2 *1468:I 0.00047356
3 *1467:Q 0.000318206
4 *261:8 0.00157254
5 *1468:I *1309:A1 0.000308957
6 *1468:I *1309:A2 3.22108e-05
7 *1468:I *1436:RN 0.000249441
8 *1468:I *1592:I 0.000171824
9 *1468:I *328:43 0.000167582
10 *1591:I *1303:A1 2.94305e-05
11 *1591:I *1309:A2 9.84829e-05
12 *1591:I *1327:A2 0.00401208
13 *1591:I *276:114 3.57634e-06
14 *1591:I *285:51 0.00105544
15 *261:8 *1303:A1 1.56958e-05
16 *261:8 *1592:I 0.000338496
17 *261:8 *276:91 8.21983e-05
18 dout_valid *1591:I 4.13976e-05
19 *353:I *1468:I 4.93741e-05
20 *1310:B *261:8 0.00116081
21 *1315:B *1591:I 4.05503e-05
22 *1328:B *1468:I 0.000419587
23 *1347:A2 *1591:I 0.0016369
24 *1347:A2 *261:8 0.000561049
25 *1437:D *1468:I 0.00017298
26 *136:32 *261:8 0.000324113
27 *191:20 *1591:I 0
*RES
1 *1467:Q *261:8 14.304 
2 *261:8 *1468:I 22.576 
3 *261:8 *1591:I 22.624 
*END

*D_NET *262 0.00395919
*CONN
*I *1592:I I *D gf180mcu_fd_sc_mcu7t5v0__buf_2
*I *1468:Z O *D gf180mcu_fd_sc_mcu7t5v0__buf_1
*CAP
1 *1592:I 0.000605705
2 *1468:Z 0.000605705
3 *1592:I *1303:A1 0.000185538
4 *1592:I *1309:A2 1.32185e-05
5 *1592:I *1327:A2 0
6 *1592:I *1347:A1 0.000352197
7 *1592:I *1436:RN 0.000263725
8 *1592:I *269:44 5.94315e-05
9 *1592:I *276:91 0.000122841
10 *1592:I *277:63 9.00155e-05
11 *1437:D *1592:I 0.0011505
12 *1468:I *1592:I 0.000171824
13 *1494:I *1592:I 0
14 *261:8 *1592:I 0.000338496
*RES
1 *1468:Z *1592:I 25.176 
*END

*D_NET *263 0.0188048
*CONN
*I *1378:A2 I *D gf180mcu_fd_sc_mcu7t5v0__nor2_1
*I *1593:I I *D gf180mcu_fd_sc_mcu7t5v0__buf_2
*I *1456:Q O *D gf180mcu_fd_sc_mcu7t5v0__dffrnq_1
*CAP
1 *1378:A2 0.00253477
2 *1593:I 0.000156455
3 *1456:Q 0.000510719
4 *263:10 0.00320195
5 *1378:A2 *1378:A1 1.07369e-05
6 *1378:A2 *1395:A2 0.00740166
7 *1378:A2 *1594:I 2.24009e-05
8 *1378:A2 *264:8 0
9 *1378:A2 *276:91 0.00028351
10 *1593:I *1594:I 0.00162341
11 *263:10 *1310:A1 0.000237086
12 *263:10 *1426:RN 1.23654e-05
13 *263:10 *296:69 5.62204e-05
14 *1310:A2 *1378:A2 0.000775837
15 *1310:A2 *263:10 0.000313488
16 *1310:B *263:10 3.36601e-05
17 *1351:A2 *1378:A2 0.000317553
18 *1351:A2 *1593:I 0.000667459
19 *1436:D *263:10 0.000223586
20 *1447:D *263:10 0.000315966
21 *7:26 *1593:I 0.000105987
*RES
1 *1456:Q *263:10 13.16 
2 *263:10 *1593:I 13.472 
3 *263:10 *1378:A2 43.584 
*END

*D_NET *264 0.0181261
*CONN
*I *1395:A2 I *D gf180mcu_fd_sc_mcu7t5v0__nor2_1
*I *1594:I I *D gf180mcu_fd_sc_mcu7t5v0__buf_2
*I *1426:Q O *D gf180mcu_fd_sc_mcu7t5v0__dffrnq_1
*CAP
1 *1395:A2 0.00201293
2 *1594:I 0.000905557
3 *1426:Q 0.000221633
4 *264:8 0.00314012
5 *1395:A2 *1378:A1 6.8199e-07
6 *1395:A2 *269:44 0.000206071
7 *1395:A2 *276:91 0.000256047
8 *1395:A2 *276:114 0.000704574
9 *1310:A2 *1395:A2 0.000290196
10 *1310:A2 *264:8 0.00045331
11 *1351:A2 *1594:I 0.000238973
12 *1378:A2 *1395:A2 0.00740166
13 *1378:A2 *1594:I 2.24009e-05
14 *1378:A2 *264:8 0
15 *1436:D *264:8 0.000494058
16 *1593:I *1594:I 0.00162341
17 *7:26 *1594:I 0.000154496
*RES
1 *1426:Q *264:8 11.184 
2 *264:8 *1594:I 17.84 
3 *264:8 *1395:A2 33.96 
*END

*D_NET *265 0.0205782
*CONN
*I *1376:B I *D gf180mcu_fd_sc_mcu7t5v0__aoi21_1
*I *1595:I I *D gf180mcu_fd_sc_mcu7t5v0__buf_2
*I *1455:Q O *D gf180mcu_fd_sc_mcu7t5v0__dffrnq_1
*CAP
1 *1376:B 0.000357228
2 *1595:I 3.36594e-05
3 *1455:Q 0.000533365
4 *265:38 0.00302249
5 *265:14 0.00387942
6 *1376:B *431:I 0.00018208
7 *1376:B *1287:A1 9.84747e-05
8 *1376:B *280:72 0.00029943
9 *1376:B *287:44 0.000693114
10 *1376:B *287:46 0.000536185
11 *265:14 *1345:A1 0.000345914
12 *265:38 *391:I 2.02388e-05
13 *265:38 *1271:A1 1.823e-05
14 *265:38 *1345:A1 0.000107519
15 *265:38 *1363:A1 0
16 *265:38 *1379:A1 9.54877e-06
17 *265:38 *272:31 0
18 *265:38 *281:35 1.59557e-05
19 *265:38 *296:46 0.00309551
20 *265:38 *297:26 0.00153667
21 samp_bot *265:38 6.11486e-05
22 *1262:I *1595:I 0
23 *1262:I *265:38 0.000151402
24 *1351:A2 *1595:I 0.000106908
25 *1354:B *265:38 0.000492786
26 *1374:B2 *1376:B 0.00025083
27 *1448:CLK *265:38 0.000140148
28 *1452:D *265:14 2.95946e-05
29 *1452:D *265:38 0.000329119
30 *1454:D *265:38 0.000161322
31 *1478:I *265:38 3.80047e-05
32 *1487:I *265:38 0.000191726
33 *1498:I *265:14 0
34 *1503:I *265:38 0.00157045
35 *1504:I *1376:B 0.00129754
36 *1510:I *265:38 3.1721e-05
37 *1575:I *265:38 0.000207961
38 *109:24 *265:38 0.000474288
39 *165:6 *265:14 0.000121595
40 *223:36 *265:14 8.48563e-06
41 *229:22 *265:38 0.000128131
*RES
1 *1455:Q *265:14 16.516 
2 *265:14 *265:38 49.436 
3 *265:38 *1595:I 9.312 
4 *265:14 *1376:B 19.428 
*END

*D_NET *266 0.012137
*CONN
*I *1362:B I *D gf180mcu_fd_sc_mcu7t5v0__aoi211_2
*I *1330:A2 I *D gf180mcu_fd_sc_mcu7t5v0__aoi21_1
*I *1562:Z O *D gf180mcu_fd_sc_mcu7t5v0__clkbuf_1
*CAP
1 *1362:B 0.000275655
2 *1330:A2 9.505e-05
3 *1562:Z 0.00110878
4 *266:20 0.00147949
5 *1330:A2 *1326:A1 5.81987e-05
6 *1330:A2 *290:34 0.000549582
7 *1330:A2 *327:55 2.79401e-05
8 *1362:B *374:I 2.61971e-06
9 *1362:B *1330:B 0.000111066
10 *1362:B *1390:I1 0.000463981
11 *1362:B *290:10 6.383e-06
12 *1362:B *335:31 3.95985e-05
13 *266:20 *374:I 2.12538e-05
14 *266:20 *1331:A1 0.00190684
15 *266:20 *1371:C 5.48812e-05
16 *266:20 *274:97 0.000711643
17 *266:20 *274:155 8.35178e-06
18 *1329:A3 *266:20 0.000415731
19 *1338:A2 *266:20 0.000271764
20 *1365:A1 *1330:A2 0.000707641
21 *1368:A1 *266:20 6.8199e-07
22 *1368:A2 *266:20 0.00019404
23 *1369:A2 *266:20 0.000325477
24 *1371:B *266:20 0.000264468
25 *1518:I *266:20 6.09457e-05
26 *147:22 *266:20 0.000422186
27 *170:26 *266:20 0.000226509
28 *177:22 *1362:B 0.000137294
29 *177:22 *266:20 0.00123511
30 *207:12 *266:20 0.00017298
31 *243:67 *266:20 0.000780913
*RES
1 *1562:Z *266:20 32.664 
2 *266:20 *1330:A2 11.288 
3 *266:20 *1362:B 11.08 
*END

*D_NET *267 0.00936549
*CONN
*I *1362:A2 I *D gf180mcu_fd_sc_mcu7t5v0__aoi211_2
*I *1326:A2 I *D gf180mcu_fd_sc_mcu7t5v0__aoi21_1
*I *1563:Z O *D gf180mcu_fd_sc_mcu7t5v0__clkbuf_1
*CAP
1 *1362:A2 0.000411261
2 *1326:A2 0
3 *1563:Z 0.00141366
4 *267:18 0.00182492
5 *1362:A2 *1326:A1 9.01709e-05
6 *1362:A2 *1330:B 0.000186843
7 *1362:A2 *1437:RN 3.39125e-06
8 *1362:A2 *327:55 6.56909e-05
9 *1362:A2 *335:49 0.000336232
10 *267:18 *392:I 2.1973e-05
11 *267:18 *1437:RN 0
12 *267:18 *268:31 0.00028351
13 *267:18 *334:24 6.37387e-06
14 *267:18 *335:49 0.000113027
15 *423:I *267:18 4.67771e-06
16 *1320:B *267:18 5.63044e-06
17 *1332:A2 *1362:A2 0.000415965
18 *1359:B *267:18 0.000144379
19 *1365:A1 *267:18 3.43752e-05
20 *1482:I *1362:A2 3.42651e-05
21 *1496:I *267:18 0.000616445
22 *1563:I *267:18 0.00247749
23 *144:25 *267:18 0.000153575
24 *208:131 *1362:A2 0.000159517
25 *208:147 *267:18 9.91778e-05
26 *208:151 *267:18 0.000462946
*RES
1 *1563:Z *267:18 27.124 
2 *267:18 *1326:A2 4.5 
3 *267:18 *1362:A2 9.7 
*END

*D_NET *268 0.00891954
*CONN
*I *1356:B1 I *D gf180mcu_fd_sc_mcu7t5v0__aoi221_2
*I *1359:A2 I *D gf180mcu_fd_sc_mcu7t5v0__aoi211_2
*I *1322:A2 I *D gf180mcu_fd_sc_mcu7t5v0__aoi21_1
*I *1365:A2 I *D gf180mcu_fd_sc_mcu7t5v0__aoi221_2
*I *1544:Z O *D gf180mcu_fd_sc_mcu7t5v0__buf_2
*CAP
1 *1356:B1 0
2 *1359:A2 0
3 *1322:A2 0.00045374
4 *1365:A2 0.000364091
5 *1544:Z 0
6 *268:31 0.000600661
7 *268:25 0.000998273
8 *268:4 0.00121544
9 *1322:A2 *392:I 1.44976e-05
10 *1322:A2 *1437:RN 3.57634e-06
11 *1322:A2 *328:60 5.64279e-05
12 *1365:A2 *1331:A1 9.15818e-05
13 *1365:A2 *336:31 0.000388272
14 *268:25 *368:I 0.000109597
15 *268:25 *290:40 3.19693e-05
16 *268:31 *392:I 0.000147265
17 *268:31 *272:59 0.000594952
18 *1312:A1 *268:25 2.68386e-05
19 *1325:A1 *268:25 1.3406e-05
20 *1328:B *268:25 0.00125381
21 *1341:A1 *268:25 0.000396217
22 *1356:A2 *268:31 0.00038441
23 *1359:A1 *1322:A2 1.76107e-05
24 *1359:B *268:31 1.79889e-05
25 *1365:A1 *1322:A2 0
26 *1544:I *1365:A2 2.38656e-05
27 *1544:I *268:25 4.62723e-05
28 *132:14 *1322:A2 4.52648e-05
29 *132:16 *1322:A2 4.67771e-06
30 *143:14 *1322:A2 3.22108e-05
31 *143:31 *1322:A2 1.2259e-05
32 *144:25 *268:31 0.000757984
33 *144:52 *1365:A2 3.73779e-05
34 *144:52 *268:25 5.9215e-05
35 *147:22 *1365:A2 4.39372e-05
36 *172:20 *1365:A2 0.000116349
37 *175:16 *1322:A2 0.000174945
38 *243:67 *1365:A2 0.000101049
39 *267:18 *268:31 0.00028351
*RES
1 *1544:Z *268:4 4.5 
2 *268:4 *1365:A2 16.828 
3 *268:4 *268:25 7.488 
4 *268:25 *268:31 12.224 
5 *268:31 *1322:A2 7.516 
6 *268:31 *1359:A2 4.5 
7 *268:25 *1356:B1 4.5 
*END

*D_NET *269 0.0277351
*CONN
*I *1306:A2 I *D gf180mcu_fd_sc_mcu7t5v0__oai21_1
*I *1324:A1 I *D gf180mcu_fd_sc_mcu7t5v0__oai21_1
*I *1320:A1 I *D gf180mcu_fd_sc_mcu7t5v0__oai21_1
*I *1315:A1 I *D gf180mcu_fd_sc_mcu7t5v0__oai21_1
*I *1398:I0 I *D gf180mcu_fd_sc_mcu7t5v0__mux2_2
*I *1310:A1 I *D gf180mcu_fd_sc_mcu7t5v0__oai21_1
*I *1501:Z O *D gf180mcu_fd_sc_mcu7t5v0__dlyb_1
*CAP
1 *1306:A2 0
2 *1324:A1 0.000438728
3 *1320:A1 0
4 *1315:A1 0
5 *1398:I0 5.60168e-05
6 *1310:A1 0.000174088
7 *1501:Z 0.000953981
8 *269:69 0.000662024
9 *269:65 0.00157413
10 *269:44 0.00196993
11 *269:29 0.00115122
12 *269:10 0.00160417
13 *1310:A1 *1291:A1 0.000552516
14 *269:10 *276:46 0.00275504
15 *269:10 *276:77 3.64339e-06
16 *269:10 *285:57 5.56117e-05
17 *269:10 *340:18 0.000349099
18 *269:10 *340:37 6.44515e-05
19 *269:29 *1291:A1 9.1598e-05
20 *269:44 *1347:A1 0.000102337
21 *269:44 *276:91 0.00313376
22 *269:65 *1303:A1 0.00193049
23 *269:65 *1327:A2 0.000223745
24 *269:65 *1385:I1 9.7683e-06
25 *269:65 *276:91 0
26 *269:65 *289:14 0.000218601
27 *269:65 *289:25 0.000283521
28 *269:65 *314:16 8.01745e-05
29 *269:69 *289:14 0.000698045
30 *1306:A1 *269:65 2.14739e-05
31 *1308:A2 *269:29 0
32 *1310:A2 *1310:A1 0.000275443
33 *1310:A2 *269:10 2.64063e-05
34 *1310:A2 *269:44 0.000745086
35 *1310:B *1310:A1 9.3968e-05
36 *1310:B *269:29 0.000265876
37 *1315:A2 *269:65 0.00081993
38 *1315:B *269:44 0.000199988
39 *1315:B *269:65 0.000976323
40 *1320:B *1324:A1 0.000135454
41 *1324:A2 *1324:A1 0.000289938
42 *1351:A2 *269:29 0.000203516
43 *1395:A2 *269:44 0.000206071
44 *1398:S *1398:I0 3.94467e-05
45 *1398:S *269:29 0.000353272
46 *1416:D *269:65 1.32185e-05
47 *1416:CLK *269:65 0.000557671
48 *1418:CLK *1324:A1 0.000509988
49 *1435:D *269:65 0.000253041
50 *1436:D *269:10 4.85042e-05
51 *1437:D *269:65 1.71326e-05
52 *1445:D *1310:A1 9.423e-05
53 *1445:D *269:29 0.000510584
54 *1447:CLK *269:10 0.000355082
55 *1563:I *1324:A1 5.33908e-06
56 *1592:I *269:44 5.94315e-05
57 *7:26 *269:44 0.000177472
58 *7:26 *269:65 0.000124299
59 *191:20 *1324:A1 1.23221e-05
60 *191:20 *269:65 2.14802e-05
61 *222:18 *1324:A1 5.291e-05
62 *241:62 *269:65 0.000406983
63 *241:88 *1324:A1 0.000415971
64 *241:88 *269:65 1.91879e-05
65 *241:88 *269:69 5.43267e-05
66 *263:10 *1310:A1 0.000237086
*RES
1 *1501:Z *269:10 18.984 
2 *269:10 *1310:A1 11.496 
3 *269:10 *269:29 9.388 
4 *269:29 *1398:I0 4.812 
5 *269:29 *269:44 18.776 
6 *269:44 *1315:A1 4.5 
7 *269:44 *269:65 25.64 
8 *269:65 *269:69 2.496 
9 *269:69 *1320:A1 4.5 
10 *269:69 *1324:A1 10.324 
11 *269:65 *1306:A2 4.5 
*END

*D_NET *270 0.0125883
*CONN
*I *1335:A1 I *D gf180mcu_fd_sc_mcu7t5v0__oai21_1
*I *1340:A1 I *D gf180mcu_fd_sc_mcu7t5v0__oai21_1
*I *1332:A1 I *D gf180mcu_fd_sc_mcu7t5v0__oai21_1
*I *1328:A1 I *D gf180mcu_fd_sc_mcu7t5v0__oai21_1
*I *1344:A1 I *D gf180mcu_fd_sc_mcu7t5v0__oai21_1
*I *1502:Z O *D gf180mcu_fd_sc_mcu7t5v0__dlyb_1
*CAP
1 *1335:A1 0.000461883
2 *1340:A1 0.000279005
3 *1332:A1 0
4 *1328:A1 0.000592755
5 *1344:A1 0.000151454
6 *1502:Z 0
7 *270:37 0.00112656
8 *270:16 0.000807204
9 *270:10 0.000565006
10 *270:6 0.000625934
11 *1328:A1 *355:I 0.000936219
12 *1328:A1 *1323:A1 7.27388e-05
13 *1328:A1 *290:10 5.88727e-05
14 *1328:A1 *327:53 8.0238e-05
15 *1328:A1 *336:31 0.000188231
16 *1335:A1 *1514:I 1.06295e-05
17 *1335:A1 *1531:I 0.000114669
18 *1335:A1 *1532:I 5.45495e-05
19 *1335:A1 *337:43 5.65788e-06
20 *1340:A1 *276:192 6.42258e-05
21 *1344:A1 *274:155 0.000240599
22 *270:10 *1514:I 0
23 *270:10 *338:28 2.2844e-05
24 *270:16 *276:192 4.76032e-05
25 *270:37 *1333:B 6.01821e-05
26 *270:37 *1390:I1 2.51788e-05
27 *270:37 *274:155 0.000238462
28 *270:37 *276:192 0.000611055
29 *270:37 *298:106 2.78364e-05
30 *270:37 *327:53 0.000560747
31 *270:37 *336:16 3.68494e-05
32 *412:I *1344:A1 2.11094e-05
33 *412:I *270:10 0.000161521
34 *412:I *270:37 5.37178e-05
35 *1332:A2 *1328:A1 0.000247057
36 *1332:B *270:37 8.45516e-05
37 *1333:A1 *270:37 0.000402021
38 *1335:A2 *270:37 5.57504e-05
39 *1335:B *1335:A1 2.31997e-05
40 *1340:A2 *1340:A1 0.00018099
41 *1344:A2 *1344:A1 0.000105623
42 *1344:B *1340:A1 0.00150607
43 *1344:B *1344:A1 2.63994e-05
44 *1344:B *270:16 0.000347043
45 *1344:B *270:37 5.6979e-06
46 *1440:D *1328:A1 0.000158763
47 *1441:D *270:37 0.000345937
48 *1442:D *1335:A1 0.000109233
49 *1443:CLK *1340:A1 0.000119171
50 *1444:D *1344:A1 9.67916e-05
51 *208:251 *1335:A1 0.000114084
52 *208:251 *270:10 7.06718e-05
53 *243:67 *1328:A1 0.000165225
54 *243:101 *1328:A1 0.000120456
*RES
1 *1502:Z *270:6 9 
2 *270:6 *270:10 6.06 
3 *270:10 *270:16 5.748 
4 *270:16 *1344:A1 10.352 
5 *270:16 *270:37 11.052 
6 *270:37 *1328:A1 19.844 
7 *270:37 *1332:A1 4.5 
8 *270:10 *1340:A1 8.764 
9 *270:6 *1335:A1 11.808 
*END

*D_NET *271 0.00631053
*CONN
*I *1298:A3 I *D gf180mcu_fd_sc_mcu7t5v0__or3_1
*I *1414:A4 I *D gf180mcu_fd_sc_mcu7t5v0__or4_1
*I *1300:B I *D gf180mcu_fd_sc_mcu7t5v0__aoi211_2
*I *1545:Z O *D gf180mcu_fd_sc_mcu7t5v0__clkbuf_1
*CAP
1 *1298:A3 0.000159746
2 *1414:A4 0
3 *1300:B 0.00061385
4 *1545:Z 0.00063614
5 *271:8 0.00109024
6 *1298:A3 *1346:A2 0.00017298
7 *1298:A3 *310:16 0.000391862
8 *271:8 *310:16 7.63268e-05
9 *1279:A1 *271:8 1.49083e-05
10 *1431:CLK *1300:B 0.000204751
11 *1431:CLK *271:8 0.000393384
12 *1466:D *1298:A3 3.38444e-05
13 *1545:I *271:8 5.36847e-05
14 *123:52 *1300:B 3.95985e-05
15 *123:65 *1300:B 0.000166145
16 *127:12 *1300:B 0.000118229
17 *127:12 *271:8 0.00031918
18 *198:26 *1300:B 0.00136085
19 *211:52 *1300:B 0.000464807
*RES
1 *1545:Z *271:8 9.284 
2 *271:8 *1300:B 10.324 
3 *271:8 *1414:A4 4.5 
4 *1300:B *1298:A3 10.664 
*END

*D_NET *272 0.0623373
*CONN
*I *392:I I *D gf180mcu_fd_sc_mcu7t5v0__antenna
*I *388:I I *D gf180mcu_fd_sc_mcu7t5v0__antenna
*I *1355:A2 I *D gf180mcu_fd_sc_mcu7t5v0__nand2_1
*I *1352:A2 I *D gf180mcu_fd_sc_mcu7t5v0__nand2_1
*I *377:I I *D gf180mcu_fd_sc_mcu7t5v0__antenna
*I *1349:A2 I *D gf180mcu_fd_sc_mcu7t5v0__nand2_1
*I *1346:A2 I *D gf180mcu_fd_sc_mcu7t5v0__nand2_1
*I *380:I I *D gf180mcu_fd_sc_mcu7t5v0__antenna
*I *384:I I *D gf180mcu_fd_sc_mcu7t5v0__antenna
*I *429:I I *D gf180mcu_fd_sc_mcu7t5v0__antenna
*I *1358:A2 I *D gf180mcu_fd_sc_mcu7t5v0__nand2_1
*I *1361:A2 I *D gf180mcu_fd_sc_mcu7t5v0__nand2_1
*I *391:I I *D gf180mcu_fd_sc_mcu7t5v0__antenna
*I *1503:Z O *D gf180mcu_fd_sc_mcu7t5v0__dlyb_1
*CAP
1 *392:I 0.00184534
2 *388:I 0
3 *1355:A2 0.000171528
4 *1352:A2 0
5 *377:I 0.000486409
6 *1349:A2 0.000253716
7 *1346:A2 0.000146906
8 *380:I 0.000858332
9 *384:I 0
10 *429:I 0.000151984
11 *1358:A2 0
12 *1361:A2 0.000650741
13 *391:I 0.00124163
14 *1503:Z 0
15 *272:186 0.000704089
16 *272:125 0.00119238
17 *272:117 0.00111992
18 *272:109 0.00168188
19 *272:97 0.000673662
20 *272:86 0.000257688
21 *272:78 0.00138873
22 *272:63 0.00285528
23 *272:59 0.00574524
24 *272:46 0.00244053
25 *272:31 0.0016237
26 *272:4 0.00172639
27 *377:I *310:16 1.44352e-05
28 *380:I *1601:I 1.09471e-05
29 *380:I *344:27 0.000723806
30 *380:I *344:31 0.000105493
31 *391:I *1448:RN 6.26602e-06
32 *391:I *1449:RN 2.35449e-05
33 *392:I *1356:C 6.8763e-06
34 *392:I *1388:I1 0.000632965
35 *392:I *333:16 0.00174548
36 *392:I *333:22 0.000789508
37 *392:I *334:24 0
38 *429:I *327:20 4.78889e-06
39 *429:I *338:28 5.02328e-05
40 *1346:A2 *310:16 0.000104217
41 *1349:A2 *344:27 0.000262137
42 *1355:A2 *444:I 0.000370775
43 *1361:A2 *1549:I 5.44801e-05
44 *1361:A2 *289:99 0.000384395
45 *272:31 *1449:RN 8.44565e-06
46 *272:46 *1373:B 0.000161793
47 *272:59 *1258:I 4.08012e-05
48 *272:59 *1356:A1 0.000570571
49 *272:59 *277:12 0
50 *272:63 *1319:A1 0.00220996
51 *272:78 *1319:A1 0.00133457
52 *272:97 *325:8 0.000277595
53 *272:97 *325:12 0.000564326
54 *272:109 *296:116 0.000217318
55 *272:109 *325:12 0.000820093
56 *272:117 *310:16 0.000184745
57 *272:125 *310:16 6.10811e-05
58 *272:125 *344:27 0.00031524
59 dac_p[1] *272:31 0.00020369
60 dac_p[1] *272:46 0.000136023
61 dac_p[1] *272:59 1.1752e-05
62 *354:I *272:186 0
63 *378:I *377:I 0.000501725
64 *378:I *272:117 0.00138181
65 *381:I *272:117 5.70116e-06
66 *382:I *1355:A2 0.000111775
67 *382:I *272:86 0.00024759
68 *382:I *272:97 0.000784493
69 *382:I *272:109 0.00194266
70 *382:I *272:186 5.25928e-06
71 *386:I *1355:A2 9.84747e-05
72 *386:I *272:186 3.88655e-05
73 *412:I *429:I 5.9643e-07
74 *419:I *1355:A2 4.72575e-05
75 *419:I *272:78 0
76 *419:I *272:186 6.71287e-05
77 *1277:A3 *272:86 3.15215e-06
78 *1277:A3 *272:97 1.36398e-06
79 *1277:A3 *272:186 3.22441e-06
80 *1291:A2 *1361:A2 7.19198e-05
81 *1298:A3 *1346:A2 0.00017298
82 *1301:A2 *272:125 0.000110509
83 *1301:B1 *377:I 0.000129265
84 *1301:B2 *272:117 8.18133e-06
85 *1317:A2 *392:I 0.000635054
86 *1322:A2 *392:I 1.44976e-05
87 *1343:A2 *272:63 0.000447783
88 *1343:A2 *272:78 0.000255283
89 *1344:A2 *429:I 0.00019537
90 *1346:A1 *1346:A2 9.76253e-05
91 *1349:A1 *1349:A2 2.12609e-05
92 *1349:A1 *272:117 1.07369e-05
93 *1349:A1 *272:125 4.67771e-06
94 *1352:A1 *272:186 0.000330471
95 *1356:A2 *272:59 0.000427056
96 *1357:A2 *272:31 1.14963e-05
97 *1357:A2 *272:46 5.00267e-05
98 *1357:A2 *272:59 0.00217142
99 *1359:B *392:I 2.06162e-05
100 *1359:B *272:59 7.85461e-05
101 *1363:B *1361:A2 8.81161e-05
102 *1365:A1 *392:I 0.00012065
103 *1373:A1 *1361:A2 7.42842e-05
104 *1373:A2 *272:31 0.000328632
105 *1374:B1 *1361:A2 9.76253e-05
106 *1387:S *392:I 7.3514e-05
107 *1412:B2 *380:I 3.97439e-05
108 *1415:A2 *1346:A2 0.000244915
109 *1415:A2 *1349:A2 1.5994e-05
110 *1415:B *1349:A2 0.000132021
111 *1415:B *272:117 6.8199e-07
112 *1426:D *391:I 0
113 *1431:D *377:I 3.57634e-06
114 *1444:D *272:63 0.000403681
115 *1456:D *391:I 5.06345e-05
116 *1462:D *380:I 0.00011834
117 *1466:D *1346:A2 0.000127464
118 *1466:CLK *380:I 0.000116881
119 *1466:CLK *272:125 2.04137e-05
120 *1470:I *1361:A2 0
121 *1487:I *391:I 5.69188e-06
122 *1497:I *392:I 2.91971e-05
123 *1502:I *429:I 1.30824e-05
124 *1563:I *392:I 4.15864e-05
125 *1584:I *392:I 0.000355296
126 *4:30 *380:I 3.96073e-05
127 *94:37 *272:59 0.000104576
128 *94:54 *272:59 0.000218529
129 *109:24 *391:I 4.71866e-06
130 *121:24 *377:I 0.00107667
131 *124:16 *380:I 3.58179e-06
132 *131:12 *1349:A2 0.000382445
133 *131:12 *272:117 5.6979e-06
134 *144:25 *392:I 0.000129786
135 *168:10 *272:125 3.22108e-05
136 *170:55 *272:86 0.000246179
137 *172:57 *1355:A2 3.10673e-05
138 *172:57 *272:186 2.92601e-05
139 *205:25 *272:59 0.000654493
140 *208:21 *272:59 0
141 *208:69 *272:59 0
142 *208:85 *272:59 0
143 *208:107 *272:59 0.000267929
144 *208:301 *272:78 0
145 *230:39 *272:59 2.24359e-05
146 *231:10 *380:I 0.000219165
147 *239:47 *380:I 0.000375926
148 *244:39 *272:46 0.000111459
149 *246:14 *272:31 0.000371558
150 *248:71 *272:78 0.00351521
151 *248:71 *272:186 0.00049676
152 *254:12 *392:I 0.000581282
153 *265:38 *391:I 2.02388e-05
154 *265:38 *272:31 0
155 *267:18 *392:I 2.1973e-05
156 *268:31 *392:I 0.000147265
157 *268:31 *272:59 0.000594952
*RES
1 *1503:Z *272:4 4.5 
2 *272:4 *391:I 11.884 
3 *272:4 *272:31 8.764 
4 *272:31 *1361:A2 13.992 
5 *272:31 *272:46 3.12 
6 *272:46 *1358:A2 9 
7 *272:46 *272:59 17.992 
8 *272:59 *272:63 19.996 
9 *272:63 *429:I 14.54 
10 *272:63 *272:78 11.752 
11 *272:78 *272:86 10.04 
12 *272:86 *384:I 4.5 
13 *272:86 *272:97 7.204 
14 *272:97 *272:109 19.636 
15 *272:109 *272:117 6.032 
16 *272:117 *272:125 6.268 
17 *272:125 *380:I 16.28 
18 *272:125 *1346:A2 10.768 
19 *272:117 *1349:A2 15.476 
20 *272:109 *377:I 9.908 
21 *272:97 *1352:A2 9 
22 *272:78 *272:186 8.452 
23 *272:186 *1355:A2 19.664 
24 *272:186 *388:I 9 
25 *272:59 *392:I 33.704 
*END

*D_NET *273 0.0237538
*CONN
*I *1374:A2 I *D gf180mcu_fd_sc_mcu7t5v0__aoi22_1
*I *1370:A2 I *D gf180mcu_fd_sc_mcu7t5v0__nand2_1
*I *1364:A2 I *D gf180mcu_fd_sc_mcu7t5v0__nand2_1
*I *1367:A2 I *D gf180mcu_fd_sc_mcu7t5v0__nand2_1
*I *1504:Z O *D gf180mcu_fd_sc_mcu7t5v0__dlyb_1
*CAP
1 *1374:A2 2.97157e-05
2 *1370:A2 0
3 *1364:A2 0.000718296
4 *1367:A2 0.000809365
5 *1504:Z 0.000484974
6 *273:61 0.00255754
7 *273:12 0.0027454
8 *273:10 0.000611483
9 *1367:A2 *289:134 8.60322e-06
10 *1367:A2 *297:26 0
11 *273:10 *357:I 0.000182695
12 *273:10 *1256:I 3.4596e-05
13 *273:10 *289:118 4.27515e-05
14 *273:10 *289:122 0.000162454
15 *273:10 *289:134 0.00016992
16 *273:12 *289:134 1.12077e-05
17 *273:61 *349:I 1.26446e-05
18 *273:61 *1360:A1 8.88205e-05
19 *273:61 *1366:A1 9.73503e-05
20 *273:61 *280:48 0.000341408
21 *273:61 *281:29 7.9227e-05
22 *273:61 *289:134 3.52587e-05
23 dac_n[3] *1367:A2 2.21369e-06
24 dac_p[1] *1364:A2 0.000231028
25 dac_p[1] *273:61 1.32294e-05
26 dac_p[3] *273:61 0
27 dac_p[4] *273:61 0.000556827
28 dac_p[6] *1364:A2 0.00102006
29 dac_p[6] *273:61 7.40777e-05
30 dac_p[7] *1364:A2 0.000876584
31 *447:I *273:61 0.000476175
32 *1265:I *273:61 1.90528e-05
33 *1287:A2 *1367:A2 0.000225995
34 *1287:A2 *273:10 0.000495283
35 *1287:A2 *273:12 0.000282453
36 *1360:B *273:61 7.6322e-05
37 *1364:A1 *1364:A2 1.23682e-05
38 *1366:B *1364:A2 7.96342e-05
39 *1367:A1 *1367:A2 0.00033778
40 *1369:B *1367:A2 4.17589e-06
41 *1370:A1 *273:61 1.54195e-05
42 *1372:B *1364:A2 0.000203739
43 *1372:B *273:61 3.61782e-05
44 *1374:B1 *273:10 0.000929656
45 *1449:CLK *273:61 1.59949e-05
46 *1451:D *273:61 0.000331622
47 *1451:CLK *273:61 1.68703e-05
48 *1452:CLK *273:10 4.04798e-05
49 *1564:I *1367:A2 0.00280534
50 *1564:I *273:61 0.000997909
51 *1566:I *1367:A2 0.00291914
52 *1567:I *1367:A2 8.1598e-06
53 *1579:I *273:61 2.71527e-05
54 *86:16 *273:61 5.99626e-07
55 *104:12 *273:10 0.000522908
56 *120:12 *1367:A2 9.96348e-05
57 *120:12 *273:61 0.000375356
58 *120:67 *1367:A2 6.27466e-05
59 *120:67 *273:10 0
60 *217:17 *273:61 0.000158231
61 *246:14 *273:61 0.000138554
62 *247:24 *273:61 3.17186e-05
63 *248:48 *1367:A2 9.41403e-06
*RES
1 *1504:Z *273:10 14.616 
2 *273:10 *273:12 0.832 
3 *273:12 *1367:A2 30.168 
4 *273:12 *273:61 39.244 
5 *273:61 *1364:A2 13.132 
6 *273:61 *1370:A2 4.5 
7 *273:10 *1374:A2 9.312 
*END

*D_NET *274 0.0529438
*CONN
*I *373:I I *D gf180mcu_fd_sc_mcu7t5v0__antenna
*I *1334:A2 I *D gf180mcu_fd_sc_mcu7t5v0__nand2_1
*I *1327:A2 I *D gf180mcu_fd_sc_mcu7t5v0__nand2_1
*I *371:I I *D gf180mcu_fd_sc_mcu7t5v0__antenna
*I *1286:A1 I *D gf180mcu_fd_sc_mcu7t5v0__nand2_1
*I *358:I I *D gf180mcu_fd_sc_mcu7t5v0__antenna
*I *375:I I *D gf180mcu_fd_sc_mcu7t5v0__antenna
*I *1339:A2 I *D gf180mcu_fd_sc_mcu7t5v0__nand2_1
*I *1331:A2 I *D gf180mcu_fd_sc_mcu7t5v0__nand2_1
*I *372:I I *D gf180mcu_fd_sc_mcu7t5v0__antenna
*I *431:I I *D gf180mcu_fd_sc_mcu7t5v0__antenna
*I *1405:A2 I *D gf180mcu_fd_sc_mcu7t5v0__oai21_1
*I *400:I I *D gf180mcu_fd_sc_mcu7t5v0__antenna
*I *1505:Z O *D gf180mcu_fd_sc_mcu7t5v0__dlyb_1
*CAP
1 *373:I 0.000198778
2 *1334:A2 0
3 *1327:A2 0.00113069
4 *371:I 0.000133082
5 *1286:A1 0
6 *358:I 0.000598275
7 *375:I 0
8 *1339:A2 0
9 *1331:A2 0
10 *372:I 0.000319124
11 *431:I 0.000280761
12 *1405:A2 0
13 *400:I 0.000389957
14 *1505:Z 0
15 *274:183 0.00040193
16 *274:159 0.00411228
17 *274:155 0.00492648
18 *274:114 0.000811151
19 *274:108 0.000458792
20 *274:97 0.000766036
21 *274:81 0.0025608
22 *274:66 0.000263971
23 *274:47 0.00129118
24 *274:34 0.00129441
25 *274:14 0.000880025
26 *274:4 0.000629785
27 *358:I *1342:B 8.09177e-05
28 *358:I *276:192 3.48065e-05
29 *358:I *298:106 1.91479e-06
30 *371:I *276:114 0.000337769
31 *372:I *276:192 0.000188509
32 *431:I *1290:A2 0
33 *431:I *280:72 6.13661e-05
34 *1327:A2 *1303:A1 0.000348802
35 *1327:A2 *1309:A2 4.67771e-06
36 *1327:A2 *285:51 0.000114807
37 *1327:A2 *289:25 8.54146e-05
38 *1327:A2 *289:38 9.819e-05
39 *274:14 *1284:A1 8.42461e-05
40 *274:14 *1284:A2 0.00038076
41 *274:14 *1290:A2 4.69809e-05
42 *274:14 *1294:A1 7.44657e-06
43 *274:14 *1376:A2 3.94467e-05
44 *274:14 *1405:A1 0.000359587
45 *274:14 *287:20 7.72843e-06
46 *274:14 *293:22 9.35542e-06
47 *274:34 *1376:A2 0.000381688
48 *274:34 *287:20 4.50458e-06
49 *274:47 *1305:B 0.00174548
50 *274:47 *276:14 6.66501e-06
51 *274:47 *276:192 3.09073e-06
52 *274:47 *280:72 0.000120506
53 *274:47 *287:20 0.000431314
54 *274:66 *312:14 3.57634e-06
55 *274:81 *1331:A1 0.000147632
56 *274:81 *312:14 8.44565e-06
57 *274:97 *1339:A1 0.000325904
58 *274:97 *1371:C 0.00105599
59 *274:108 *1339:A1 0.000121284
60 *274:108 *1342:B 0.000186598
61 *274:155 *1331:A1 0.000262946
62 *274:155 *1368:C 0.00194828
63 *274:155 *1530:I 0
64 *274:155 *1531:I 1.30439e-05
65 *274:155 *337:43 0.000416808
66 *274:159 *355:I 1.86302e-05
67 *274:159 *1314:A1 3.26114e-05
68 *274:159 *1323:A1 2.79108e-05
69 *274:159 *1388:I1 0.000103788
70 *274:159 *1513:I 3.09205e-05
71 *274:159 *276:114 0.000219891
72 *274:159 *283:8 8.87408e-05
73 *274:159 *284:12 4.42024e-05
74 *274:159 *285:51 0.00100649
75 *274:159 *298:106 0.000325466
76 *274:159 *334:14 0.00105588
77 *274:159 *335:12 2.13547e-05
78 *274:183 *1530:I 4.36473e-05
79 dout[5] *373:I 0.000417177
80 *350:I *358:I 4.33918e-05
81 *350:I *274:114 6.5309e-05
82 *412:I *274:155 6.51671e-05
83 *424:I *274:159 1.10019e-05
84 *450:I *274:159 0.000103765
85 *1249:I *400:I 0.00100569
86 *1253:I *274:108 1.42704e-05
87 *1286:A2 *274:97 5.08279e-05
88 *1286:A2 *274:108 6.84821e-05
89 *1315:A2 *1327:A2 7.15269e-06
90 *1328:B *1327:A2 0.000239765
91 *1332:B *274:81 0.000520588
92 *1332:B *274:155 1.52889e-05
93 *1335:A2 *274:155 0.000101469
94 *1335:B *274:155 0.000159254
95 *1335:B *274:183 0
96 *1344:A1 *274:155 0.000240599
97 *1363:B *400:I 0.000638464
98 *1369:A2 *274:97 3.17547e-05
99 *1371:A1 *372:I 0.000245395
100 *1371:B *274:97 9.72765e-05
101 *1372:A2 *274:47 0.000209896
102 *1372:A2 *274:81 0.000574326
103 *1374:B2 *431:I 0.000546921
104 *1374:B2 *274:47 0.001076
105 *1374:B2 *274:97 7.05729e-05
106 *1376:A1 *431:I 0.000254067
107 *1376:B *431:I 0.00018208
108 *1386:S *274:159 0
109 *1387:S *274:159 5.8376e-05
110 *1391:I0 *373:I 0
111 *1391:I0 *274:183 0
112 *1397:A2 *274:14 0.000181235
113 *1405:B *274:14 5.63044e-06
114 *1406:A2 *400:I 0.000603566
115 *1419:D *274:159 0.000114271
116 *1420:D *274:159 0.00061371
117 *1422:D *274:155 7.10063e-05
118 *1430:D *400:I 0.000389703
119 *1437:D *1327:A2 0
120 *1444:CLK *358:I 0.000471397
121 *1463:D *274:108 1.18091e-06
122 *1469:I *274:47 0.000592193
123 *1473:I *274:155 0.00035269
124 *1475:I *358:I 0.000114785
125 *1475:I *274:114 0
126 *1502:I *274:155 2.88156e-05
127 *1510:I *400:I 0
128 *1511:I *400:I 0.000213482
129 *1521:I *274:47 2.34864e-05
130 *1562:I *372:I 7.94765e-05
131 *1586:I *274:159 0.000149766
132 *1591:I *1327:A2 0.00401208
133 *1592:I *1327:A2 0
134 *97:14 *400:I 0.000131258
135 *101:16 *274:97 5.13977e-05
136 *105:14 *431:I 6.72912e-05
137 *120:67 *274:14 0.000240599
138 *159:41 *372:I 0.000183856
139 *159:41 *274:47 0.000310549
140 *159:41 *274:66 8.44565e-06
141 *159:41 *274:81 0.000163143
142 *170:26 *274:97 0.00102459
143 *170:26 *274:108 0
144 *208:249 *274:155 0.000220592
145 *208:251 *274:155 0.000169316
146 *232:56 *274:159 7.71174e-05
147 *241:111 *274:155 3.7145e-05
148 *257:8 *373:I 0
149 *266:20 *274:97 0.000711643
150 *266:20 *274:155 8.35178e-06
151 *269:65 *1327:A2 0.000223745
152 *270:37 *274:155 0.000238462
*RES
1 *1505:Z *274:4 4.5 
2 *274:4 *274:14 13.264 
3 *274:14 *400:I 19.428 
4 *274:14 *1405:A2 4.5 
5 *274:4 *274:34 5.644 
6 *274:34 *431:I 11.912 
7 *274:34 *274:47 10.712 
8 *274:47 *372:I 11.808 
9 *274:47 *274:66 5.124 
10 *274:66 *1331:A2 4.5 
11 *274:66 *274:81 7.412 
12 *274:81 *274:97 21.3 
13 *274:97 *1339:A2 4.5 
14 *274:97 *274:108 1.976 
15 *274:108 *274:114 10.144 
16 *274:114 *375:I 4.5 
17 *274:114 *358:I 17.764 
18 *274:108 *1286:A1 4.5 
19 *274:81 *274:155 16.432 
20 *274:155 *274:159 28.316 
21 *274:159 *371:I 5.748 
22 *274:159 *1327:A2 26.812 
23 *274:155 *274:183 1.56 
24 *274:183 *1334:A2 9 
25 *274:183 *373:I 11.08 
*END

*D_NET *275 0.00152328
*CONN
*I *1596:I I *D gf180mcu_fd_sc_mcu7t5v0__buf_2
*I *1383:A2 I *D gf180mcu_fd_sc_mcu7t5v0__nand3_1
*I *1458:Q O *D gf180mcu_fd_sc_mcu7t5v0__dffrnq_1
*CAP
1 *1596:I 0
2 *1383:A2 0.000485094
3 *1458:Q 0.000158117
4 *275:10 0.000643211
5 *1383:A2 *1552:I 8.44565e-06
6 *1383:A2 *1597:I 0
7 *1383:A2 *305:8 3.13487e-05
8 *1252:I *275:10 9.85311e-05
9 *1382:A1 *1383:A2 0
10 *4:30 *275:10 9.85311e-05
11 *111:28 *1383:A2 0
*RES
1 *1458:Q *275:10 15.268 
2 *275:10 *1383:A2 7.412 
3 *275:10 *1596:I 4.5 
*END

*D_NET *276 0.0709129
*CONN
*I *364:I I *D gf180mcu_fd_sc_mcu7t5v0__antenna
*I *369:I I *D gf180mcu_fd_sc_mcu7t5v0__antenna
*I *1323:A2 I *D gf180mcu_fd_sc_mcu7t5v0__nand2_1
*I *367:I I *D gf180mcu_fd_sc_mcu7t5v0__antenna
*I *1319:A2 I *D gf180mcu_fd_sc_mcu7t5v0__nand2_1
*I *432:I I *D gf180mcu_fd_sc_mcu7t5v0__antenna
*I *430:I I *D gf180mcu_fd_sc_mcu7t5v0__antenna
*I *1505:I I *D gf180mcu_fd_sc_mcu7t5v0__dlyb_1
*I *365:I I *D gf180mcu_fd_sc_mcu7t5v0__antenna
*I *1314:A2 I *D gf180mcu_fd_sc_mcu7t5v0__nand2_1
*I *366:I I *D gf180mcu_fd_sc_mcu7t5v0__antenna
*I *1309:A2 I *D gf180mcu_fd_sc_mcu7t5v0__nand2_1
*I *1304:A2 I *D gf180mcu_fd_sc_mcu7t5v0__nand2_1
*I *1506:Z O *D gf180mcu_fd_sc_mcu7t5v0__buf_2
*CAP
1 *364:I 0.000393658
2 *369:I 0.000328769
3 *1323:A2 0
4 *367:I 5.59829e-05
5 *1319:A2 0
6 *432:I 0
7 *430:I 0.000927785
8 *1505:I 9.65711e-05
9 *365:I 0
10 *1314:A2 0
11 *366:I 0.00269345
12 *1309:A2 0.000557925
13 *1304:A2 0.000793962
14 *1506:Z 6.30247e-05
15 *276:220 0.000371434
16 *276:216 0.000739784
17 *276:203 0.000926573
18 *276:192 0.0032757
19 *276:147 0.00153986
20 *276:114 0.00375128
21 *276:91 0.00258118
22 *276:77 0.0010992
23 *276:46 0.00284752
24 *276:20 0.00294785
25 *276:14 0.00106916
26 *276:8 0.00332819
27 *364:I *401:I 5.0164e-05
28 *364:I *1393:S 0.000154143
29 *364:I *296:116 0.000162038
30 *366:I *404:I 4.56261e-05
31 *366:I *1420:RN 0
32 *366:I *1556:I 0.000103117
33 *366:I *285:51 0.000346468
34 *366:I *289:38 0
35 *366:I *289:53 0
36 *369:I *409:I 0
37 *369:I *1323:A1 0
38 *430:I *280:72 2.1233e-05
39 *1304:A2 *1304:A1 0.000861495
40 *1304:A2 *297:26 0.000186352
41 *1309:A2 *1303:A1 1.53614e-05
42 *1505:I *1294:A1 0.000103788
43 *1505:I *287:33 9.96348e-05
44 *276:8 *312:14 2.04597e-06
45 *276:14 *1305:B 2.1322e-05
46 *276:14 *343:12 0.000483799
47 *276:20 *1405:A1 0.000476383
48 *276:20 *293:14 2.85553e-05
49 *276:46 *1258:I 3.87278e-06
50 *276:46 *1271:A1 5.6311e-05
51 *276:46 *290:151 3.63255e-05
52 *276:46 *308:18 1.20105e-05
53 *276:46 *340:37 3.34022e-05
54 *276:77 *1304:A1 0.000102011
55 *276:77 *285:57 0.000315223
56 *276:91 *410:I 0.000176038
57 *276:91 *285:57 0.000238523
58 *276:114 *1327:A1 0.000104752
59 *276:114 *289:38 2.42339e-05
60 *276:147 *1284:A1 9.10593e-05
61 *276:147 *1376:A2 3.60432e-05
62 *276:147 *1405:A1 9.78417e-05
63 *276:192 *1333:B 0.000478841
64 *276:192 *1463:RN 0
65 *276:192 *298:106 0.00011257
66 *276:192 *338:28 0.000401652
67 *276:203 *296:116 7.25771e-05
68 *276:216 *1393:S 2.85935e-05
69 *276:216 *296:116 8.50669e-05
70 *276:220 *409:I 0
71 *276:220 *1323:A1 1.07369e-05
72 dout[1] *366:I 0
73 dout_valid *276:114 7.49293e-06
74 eoc *276:91 1.78547e-05
75 *358:I *276:192 3.48065e-05
76 *371:I *276:114 0.000337769
77 *372:I *276:192 0.000188509
78 *418:I *276:203 0.000195176
79 *441:I *276:192 8.59354e-05
80 *1260:I *1304:A2 0.000205751
81 *1262:I *1304:A2 1.84539e-05
82 *1310:A2 *276:91 0.00024941
83 *1315:B *276:91 0.000709717
84 *1315:B *276:114 0.00505538
85 *1327:A2 *1309:A2 4.67771e-06
86 *1328:B *1309:A2 1.12609e-05
87 *1332:B *276:192 7.436e-05
88 *1333:A1 *276:192 4.02317e-05
89 *1333:A2 *276:192 0.00037103
90 *1335:A2 *276:192 6.54899e-06
91 *1340:A1 *276:192 6.42258e-05
92 *1343:A2 *276:14 7.02181e-06
93 *1343:A2 *276:192 3.52808e-05
94 *1344:B *276:192 0.000109714
95 *1348:A2 *1304:A2 0.00266581
96 *1348:A2 *276:77 5.17489e-05
97 *1351:A2 *276:91 0.00174286
98 *1355:A1 *369:I 2.81522e-06
99 *1357:B *276:46 0.000336625
100 *1368:A1 *276:192 0.000113168
101 *1372:A2 *430:I 0.000175822
102 *1378:A2 *276:91 0.00028351
103 *1395:A2 *276:91 0.000256047
104 *1395:A2 *276:114 0.000704574
105 *1401:A2 *276:46 0.00173111
106 *1403:A1 *276:20 0.000131266
107 *1403:B *276:20 0.000838535
108 *1426:CLK *1304:A2 1.14787e-05
109 *1427:D *276:46 0.000962127
110 *1427:D *276:91 2.79125e-05
111 *1428:D *276:46 0.00101931
112 *1429:D *276:46 0.000393644
113 *1430:CLK *276:20 1.77376e-05
114 *1442:CLK *276:192 3.93698e-05
115 *1443:D *276:192 0.000225871
116 *1443:CLK *276:192 0.00146355
117 *1444:CLK *276:192 3.71885e-05
118 *1445:D *276:46 1.45511e-05
119 *1445:D *276:77 9.0821e-05
120 *1445:D *276:91 1.07369e-05
121 *1463:D *276:192 0
122 *1468:I *1309:A2 3.22108e-05
123 *1469:I *276:20 0.000165434
124 *1476:I *276:192 0
125 *1476:I *276:203 2.32895e-05
126 *1490:I *276:192 2.48024e-05
127 *1492:I *367:I 2.01852e-05
128 *1511:I *276:46 0.000194511
129 *1521:I *276:14 0.00073854
130 *1582:I *366:I 0.000427061
131 *1591:I *1309:A2 9.84829e-05
132 *1591:I *276:114 3.57634e-06
133 *1592:I *1309:A2 1.32185e-05
134 *1592:I *276:91 0.000122841
135 *7:26 *276:114 0.000261408
136 *109:24 *276:46 0.000221496
137 *110:14 *1505:I 0.000109233
138 *110:33 *1505:I 6.93286e-06
139 *110:33 *276:147 4.49236e-05
140 *120:67 *1505:I 5.41402e-06
141 *120:67 *276:147 1.01642e-06
142 *123:16 *276:20 4.27615e-05
143 *123:16 *276:46 0.000388377
144 *136:32 *276:91 0.000236549
145 *146:30 *276:203 5.75258e-05
146 *159:41 *276:8 6.04169e-06
147 *208:11 *276:14 0.00044096
148 *208:11 *276:20 3.63141e-05
149 *208:15 *276:20 5.59277e-05
150 *208:15 *276:147 0.000135809
151 *208:19 *276:46 0.000290005
152 *219:18 *276:46 5.23919e-05
153 *229:83 *276:192 4.14686e-05
154 *229:94 *276:192 0.000141171
155 *231:22 *276:20 0.000252185
156 *241:111 *364:I 0.000256274
157 *243:79 *367:I 1.03327e-05
158 *243:79 *369:I 5.53272e-05
159 *243:79 *276:203 0.000232939
160 *243:79 *276:216 7.47787e-05
161 *243:79 *276:220 1.60428e-05
162 *254:12 *366:I 0.00146535
163 *261:8 *276:91 8.21983e-05
164 *269:10 *276:46 0.00275504
165 *269:10 *276:77 3.64339e-06
166 *269:44 *276:91 0.00313376
167 *269:65 *276:91 0
168 *270:16 *276:192 4.76032e-05
169 *270:37 *276:192 0.000611055
170 *274:47 *276:14 6.66501e-06
171 *274:47 *276:192 3.09073e-06
172 *274:159 *276:114 0.000219891
*RES
1 *1506:Z *276:8 9.312 
2 *276:8 *276:14 9.492 
3 *276:14 *276:20 9.908 
4 *276:20 *276:46 48.32 
5 *276:46 *1304:A2 28.296 
6 *276:46 *276:77 6.164 
7 *276:77 *276:91 28.892 
8 *276:91 *1309:A2 20.392 
9 *276:91 *276:114 19.06 
10 *276:114 *366:I 34.196 
11 *276:114 *1314:A2 4.5 
12 *276:77 *365:I 4.5 
13 *276:20 *276:147 3.952 
14 *276:147 *1505:I 9.832 
15 *276:147 *430:I 21.536 
16 *276:14 *432:I 4.5 
17 *276:8 *276:192 26.756 
18 *276:192 *1319:A2 4.5 
19 *276:192 *276:203 8.868 
20 *276:203 *367:I 9.312 
21 *276:203 *276:216 1.872 
22 *276:216 *276:220 4.812 
23 *276:220 *1323:A2 4.5 
24 *276:220 *369:I 6.372 
25 *276:216 *364:I 12.12 
*END

*D_NET *277 0.0164999
*CONN
*I *1303:A1 I *D gf180mcu_fd_sc_mcu7t5v0__aoi21_1
*I *1347:A1 I *D gf180mcu_fd_sc_mcu7t5v0__aoi211_2
*I *1312:A3 I *D gf180mcu_fd_sc_mcu7t5v0__and3_1
*I *1318:A1 I *D gf180mcu_fd_sc_mcu7t5v0__aoi21_1
*I *1307:A3 I *D gf180mcu_fd_sc_mcu7t5v0__and3_1
*I *1353:B2 I *D gf180mcu_fd_sc_mcu7t5v0__aoi221_2
*I *1507:Z O *D gf180mcu_fd_sc_mcu7t5v0__dlyb_1
*CAP
1 *1303:A1 0.000499113
2 *1347:A1 0.000180377
3 *1312:A3 5.84608e-06
4 *1318:A1 0.000418697
5 *1307:A3 0
6 *1353:B2 0.00106977
7 *1507:Z 0.000156714
8 *277:63 0.00174926
9 *277:27 0.000486394
10 *277:18 0.000186862
11 *277:12 0.000281726
12 *1303:A1 *1303:B 8.49314e-05
13 *1312:A3 *1312:A2 0.000113027
14 *1318:A1 *289:14 0
15 *277:18 *1312:A2 0.000465545
16 *277:63 *1312:A2 0.000555601
17 *353:I *277:63 2.33158e-05
18 *1303:A2 *1303:A1 1.65832e-05
19 *1306:A1 *1303:A1 0.000103788
20 *1307:A2 *1318:A1 8.35223e-05
21 *1307:A2 *277:18 0.000469915
22 *1307:A2 *277:27 0.000674576
23 *1309:A2 *1303:A1 1.53614e-05
24 *1315:A2 *1303:A1 3.07831e-05
25 *1315:B *1303:A1 1.48584e-05
26 *1320:A2 *1318:A1 2.82894e-06
27 *1324:A2 *1318:A1 0.000863112
28 *1327:A2 *1303:A1 0.000348802
29 *1328:B *277:63 3.40309e-05
30 *1347:B *1347:A1 1.55426e-05
31 *1347:B *277:63 0
32 *1353:B1 *1318:A1 0.000125283
33 *1353:B1 *277:18 0.000461097
34 *1353:B1 *277:27 0.000709741
35 *1357:A2 *277:12 0.000152316
36 *1437:D *277:63 0.00121519
37 *1437:CLK *277:63 0.00046846
38 *1591:I *1303:A1 2.94305e-05
39 *1592:I *1303:A1 0.000185538
40 *1592:I *1347:A1 0.000352197
41 *1592:I *277:63 9.00155e-05
42 *7:26 *1303:A1 0.000118969
43 *132:12 *1318:A1 7.15853e-05
44 *143:14 *1318:A1 0.000313514
45 *175:16 *277:12 0.000654104
46 *219:10 *277:63 0
47 *230:39 *1312:A3 7.84307e-05
48 *230:39 *277:18 0.000474589
49 *261:8 *1303:A1 1.56958e-05
50 *269:44 *1347:A1 0.000102337
51 *269:65 *1303:A1 0.00193049
52 *272:59 *277:12 0
*RES
1 *1507:Z *277:12 15.58 
2 *277:12 *277:18 7.204 
3 *277:18 *1353:B2 9 
4 *277:18 *277:27 1.976 
5 *277:27 *1307:A3 9 
6 *277:27 *1318:A1 13.264 
7 *277:12 *1312:A3 4.812 
8 *1353:B2 *277:63 17.84 
9 *277:63 *1347:A1 11.08 
10 *277:63 *1303:A1 15.864 
*END

*D_NET *278 0.00115285
*CONN
*I *1356:A1 I *D gf180mcu_fd_sc_mcu7t5v0__aoi221_2
*I *1546:Z O *D gf180mcu_fd_sc_mcu7t5v0__dlyb_1
*CAP
1 *1356:A1 0.000123155
2 *1546:Z 0.000123155
3 *94:54 *1356:A1 0.000128395
4 *230:39 *1356:A1 0.000103788
5 *243:67 *1356:A1 0.000103788
6 *272:59 *1356:A1 0.000570571
*RES
1 *1546:Z *1356:A1 19.872 
*END

*D_NET *279 0.00781597
*CONN
*I *1542:I I *D gf180mcu_fd_sc_mcu7t5v0__buf_2
*I *1290:A1 I *D gf180mcu_fd_sc_mcu7t5v0__nor2_1
*I *1508:Z O *D gf180mcu_fd_sc_mcu7t5v0__buf_2
*CAP
1 *1542:I 0.000700688
2 *1290:A1 0.000731211
3 *1508:Z 0.000428149
4 *279:10 0.00186005
5 *1290:A1 *298:14 0.00182802
6 *1542:I *1465:RN 7.5959e-06
7 *279:10 *1548:I 4.18042e-05
8 *1280:A3 *1542:I 0.000370192
9 *1369:A2 *1290:A1 0.000145165
10 *1376:A1 *1542:I 0
11 *1376:A1 *279:10 0
12 *1377:A1 *1542:I 1.99386e-05
13 *1377:A2 *1542:I 3.93494e-05
14 *1377:A3 *279:10 0.000463724
15 *1382:A1 *1542:I 4.69809e-05
16 *1383:A3 *1542:I 2.04597e-06
17 *1383:A3 *279:10 3.88847e-05
18 *1407:A1 *279:10 6.86483e-05
19 *1455:D *1290:A1 5.83625e-05
20 *1571:I *1290:A1 0.000111066
21 *122:20 *1290:A1 0.00011834
22 *126:14 *1542:I 0.000572464
23 *248:65 *1290:A1 0.000163292
*RES
1 *1508:Z *279:10 7.932 
2 *279:10 *1290:A1 20.364 
3 *279:10 *1542:I 10.324 
*END

*D_NET *280 0.0337215
*CONN
*I *1273:A1 I *D gf180mcu_fd_sc_mcu7t5v0__nor2_1
*I *1292:B2 I *D gf180mcu_fd_sc_mcu7t5v0__oai22_4
*I *1369:A1 I *D gf180mcu_fd_sc_mcu7t5v0__oai21_1
*I *1372:A1 I *D gf180mcu_fd_sc_mcu7t5v0__oai21_1
*I *1366:A1 I *D gf180mcu_fd_sc_mcu7t5v0__oai21_1
*I *1373:B I *D gf180mcu_fd_sc_mcu7t5v0__aoi21_1
*I *1509:Z O *D gf180mcu_fd_sc_mcu7t5v0__buf_2
*CAP
1 *1273:A1 0.00137828
2 *1292:B2 8.4644e-05
3 *1369:A1 0.000180337
4 *1372:A1 0
5 *1366:A1 0.000229284
6 *1373:B 0.00110623
7 *1509:Z 0.000357185
8 *280:72 0.00289775
9 *280:52 0.000217415
10 *280:48 0.00245589
11 *280:31 0.00280447
12 *280:10 0.00305461
13 *1273:A1 *1255:I 3.60635e-05
14 *1273:A1 *1296:A1 0.000129122
15 *1273:A1 *1375:A1 9.95226e-05
16 *1273:A1 *1408:A2 0.00014811
17 *1273:A1 *1516:I 0.000595306
18 *1273:A1 *1601:I 2.91365e-05
19 *1369:A1 *1379:A1 2.34403e-05
20 *1373:B *1549:I 2.46717e-05
21 *1373:B *298:14 0
22 *280:10 *1270:A2 0.000911288
23 *280:10 *290:129 0.00262535
24 *280:10 *291:79 0.00221949
25 *280:10 *292:47 3.46858e-05
26 *280:31 *1363:A1 2.92671e-05
27 *280:31 *298:14 0
28 *280:48 *1287:A1 1.09973e-05
29 *280:48 *296:34 0.000934363
30 *280:48 *304:12 6.64107e-06
31 *280:72 *1287:A1 2.04819e-05
32 *280:72 *1345:A1 2.73939e-05
33 *280:72 *304:12 0.00026177
34 *430:I *280:72 2.1233e-05
35 *431:I *280:72 6.13661e-05
36 *1265:I *1366:A1 5.38485e-05
37 *1265:I *280:31 0
38 *1272:A4 *280:10 0.000143956
39 *1273:A2 *1273:A1 0.000413711
40 *1278:A2 *1273:A1 9.96348e-05
41 *1292:B1 *1273:A1 4.42682e-06
42 *1292:B1 *1292:B2 5.20016e-05
43 *1296:A2 *1273:A1 3.4596e-05
44 *1357:A2 *1373:B 1.84416e-05
45 *1363:B *280:31 4.50277e-05
46 *1366:A2 *1366:A1 2.47594e-05
47 *1366:A2 *280:31 9.00011e-05
48 *1372:A2 *280:72 0.000362422
49 *1374:A1 *280:48 8.88369e-05
50 *1375:A2 *1273:A1 0.000175906
51 *1376:B *280:72 0.00029943
52 *1400:B2 *280:10 1.51772e-05
53 *1407:B1 *1273:A1 0.000767756
54 *1452:D *1369:A1 1.36655e-05
55 *1453:D *1369:A1 3.4596e-05
56 *1453:D *280:52 0.000247057
57 *1453:D *280:72 0.000222736
58 *1454:CLK *280:31 6.54575e-05
59 *1469:I *280:72 0.000126473
60 *1470:I *1373:B 2.00924e-05
61 *1504:I *280:72 0.00129754
62 *1564:I *1366:A1 4.51452e-05
63 *86:16 *280:48 0.000772255
64 *108:14 *280:31 5.65121e-05
65 *110:37 *280:72 0.00040025
66 *120:12 *280:48 0
67 *122:20 *1369:A1 0.000668571
68 *122:20 *280:52 0.000247057
69 *123:16 *1292:B2 4.69713e-05
70 *206:22 *280:10 0.000473227
71 *206:22 *280:31 3.52286e-05
72 *218:8 *280:31 0.000114902
73 *231:16 *1273:A1 0.00154382
74 *231:22 *1273:A1 0.000360416
75 *231:22 *1292:B2 0.000257606
76 *233:18 *280:31 0.000119003
77 *244:39 *1373:B 0.000126178
78 *272:46 *1373:B 0.000161793
79 *273:61 *1366:A1 9.73503e-05
80 *273:61 *280:48 0.000341408
81 *274:47 *280:72 0.000120506
*RES
1 *1509:Z *280:10 22.756 
2 *280:10 *1373:B 18.388 
3 *280:10 *280:31 13.028 
4 *280:31 *1366:A1 10.56 
5 *280:31 *280:48 17.528 
6 *280:48 *280:52 5.228 
7 *280:52 *1372:A1 4.5 
8 *280:52 *1369:A1 6.476 
9 *280:48 *280:72 17.084 
10 *280:72 *1292:B2 5.54 
11 *280:72 *1273:A1 35.812 
*END

*D_NET *281 0.0145863
*CONN
*I *1363:A1 I *D gf180mcu_fd_sc_mcu7t5v0__oai21_1
*I *1357:A1 I *D gf180mcu_fd_sc_mcu7t5v0__oai21_1
*I *1351:A1 I *D gf180mcu_fd_sc_mcu7t5v0__oai21_1
*I *1354:A1 I *D gf180mcu_fd_sc_mcu7t5v0__oai21_1
*I *1348:A1 I *D gf180mcu_fd_sc_mcu7t5v0__oai21_1
*I *1360:A1 I *D gf180mcu_fd_sc_mcu7t5v0__oai21_1
*I *1510:Z O *D gf180mcu_fd_sc_mcu7t5v0__dlyb_1
*CAP
1 *1363:A1 0.000198737
2 *1357:A1 2.31186e-05
3 *1351:A1 0
4 *1354:A1 0
5 *1348:A1 0.000174155
6 *1360:A1 0.000156501
7 *1510:Z 0.000443478
8 *281:43 0.000324501
9 *281:35 0.00041477
10 *281:29 0.000866459
11 *281:10 0.000980159
12 *1348:A1 *403:I 0
13 *1348:A1 *296:46 0.000110444
14 *1348:A1 *297:26 1.02998e-05
15 *1363:A1 *296:46 0.00030398
16 *281:10 *1379:A1 0.00197512
17 *281:10 *297:26 0.00198555
18 *281:29 *1379:A1 0.000146631
19 *281:29 *296:46 0
20 dac_p[1] *1360:A1 0.000107334
21 dac_p[1] *281:10 6.99477e-05
22 dac_p[4] *281:29 0.000344213
23 dac_p[4] *281:35 0.000162681
24 *1262:I *281:43 0.000821169
25 *1351:B *281:35 0.00012135
26 *1351:B *281:43 1.12327e-05
27 *1357:A2 *281:29 4.39547e-05
28 *1364:A1 *281:43 5.78216e-06
29 *1366:A2 *1363:A1 0.000236019
30 *1372:B *281:29 0.000776919
31 *1446:D *281:35 0.000122244
32 *1446:D *281:43 0.000189974
33 *1448:D *1357:A1 1.56603e-05
34 *1448:D *281:29 0.00047039
35 *1448:CLK *281:35 1.26446e-05
36 *1448:CLK *281:43 0
37 *1449:CLK *1360:A1 5.29134e-05
38 *1449:CLK *281:29 0
39 *1450:D *1363:A1 0.000847471
40 *1454:D *1363:A1 0.000424592
41 *1456:D *281:29 0.00035962
42 *1575:I *281:29 1.56603e-05
43 *1575:I *281:35 0.000182634
44 *175:16 *281:29 0.000553061
45 *229:22 *281:35 7.02352e-05
46 *229:22 *281:43 2.38773e-05
47 *246:14 *1360:A1 0.00013468
48 *246:14 *281:10 8.29207e-05
49 *265:38 *1363:A1 0
50 *265:38 *281:35 1.59557e-05
51 *273:61 *1360:A1 8.88205e-05
52 *273:61 *281:29 7.9227e-05
53 *280:31 *1363:A1 2.92671e-05
*RES
1 *1510:Z *281:10 15.24 
2 *281:10 *1360:A1 10.664 
3 *281:10 *281:29 11.676 
4 *281:29 *281:35 3.432 
5 *281:35 *281:43 11.496 
6 *281:43 *1348:A1 5.748 
7 *281:43 *1354:A1 4.5 
8 *281:35 *1351:A1 4.5 
9 *281:29 *1357:A1 4.812 
10 *1510:Z *1363:A1 21.12 
*END

*D_NET *282 0.00826075
*CONN
*I *1401:C I *D gf180mcu_fd_sc_mcu7t5v0__aoi211_1
*I *1509:I I *D gf180mcu_fd_sc_mcu7t5v0__buf_2
*I *1407:B2 I *D gf180mcu_fd_sc_mcu7t5v0__oai221_4
*I *1511:Z O *D gf180mcu_fd_sc_mcu7t5v0__dlyb_1
*CAP
1 *1401:C 0
2 *1509:I 0.000685524
3 *1407:B2 0.00151908
4 *1511:Z 0
5 *282:29 0.000971067
6 *282:4 0.00180463
7 *1407:B2 *1376:A2 2.81522e-06
8 *1407:B2 *287:10 1.42738e-05
9 *1407:B2 *293:54 0.000145815
10 *1407:B2 *343:27 0.00061262
11 *1509:I *1429:RN 0.000278756
12 *1509:I *302:10 0.000107648
13 *1509:I *302:18 0.000779133
14 *282:29 *293:54 2.10925e-05
15 *1273:A2 *1407:B2 0
16 *1369:A2 *1407:B2 0.000111942
17 *1374:B2 *1407:B2 0.000329581
18 *1402:A3 *1407:B2 3.99976e-06
19 *1402:A3 *282:29 8.58333e-05
20 *1403:A1 *1407:B2 2.63994e-05
21 *1407:A1 *1407:B2 0.000175822
22 *1430:D *1509:I 3.4596e-05
23 *1430:CLK *1407:B2 2.57168e-05
24 *1430:CLK *1509:I 6.8199e-07
25 *1430:CLK *282:29 5.50465e-05
26 *97:14 *1509:I 0.000297451
27 *108:27 *282:29 4.40271e-05
28 *110:33 *1407:B2 0
29 *123:16 *1407:B2 2.3411e-05
30 *196:10 *1407:B2 0.000103788
*RES
1 *1511:Z *282:4 4.5 
2 *282:4 *1407:B2 30.82 
3 *282:4 *282:29 2.08 
4 *282:29 *1509:I 18.908 
5 *282:29 *1401:C 4.5 
*END

*D_NET *283 0.0118243
*CONN
*I *1543:I I *D gf180mcu_fd_sc_mcu7t5v0__buf_2
*I *1390:S I *D gf180mcu_fd_sc_mcu7t5v0__mux2_2
*I *1512:Z O *D gf180mcu_fd_sc_mcu7t5v0__buf_2
*CAP
1 *1543:I 0
2 *1390:S 0.00056117
3 *1512:Z 0.000951637
4 *283:8 0.00151281
5 *1390:S *1557:I 3.01822e-05
6 *283:8 *1334:A1 0.000933101
7 *283:8 *1512:I 0.000155999
8 *283:8 *1530:I 0.000699315
9 *283:8 *323:18 0
10 dout[5] *283:8 3.92292e-05
11 *450:I *1390:S 4.10234e-05
12 *1335:B *283:8 0.000419265
13 *1390:I0 *1390:S 0.0034733
14 *1421:D *1390:S 0.000105965
15 *1441:D *1390:S 0.00267641
16 *1586:I *283:8 5.55876e-05
17 *256:10 *1390:S 8.05935e-05
18 *274:159 *283:8 8.87408e-05
*RES
1 *1512:Z *283:8 13.444 
2 *283:8 *1390:S 24.004 
3 *283:8 *1543:I 4.5 
*END

*D_NET *284 0.0161317
*CONN
*I *1391:S I *D gf180mcu_fd_sc_mcu7t5v0__mux2_2
*I *1393:S I *D gf180mcu_fd_sc_mcu7t5v0__mux2_2
*I *1394:S I *D gf180mcu_fd_sc_mcu7t5v0__mux2_2
*I *1392:S I *D gf180mcu_fd_sc_mcu7t5v0__mux2_2
*I *1513:Z O *D gf180mcu_fd_sc_mcu7t5v0__dlyb_1
*CAP
1 *1391:S 3.15463e-05
2 *1393:S 0.0015903
3 *1394:S 0
4 *1392:S 0
5 *1513:Z 0.000762528
6 *284:31 0.00184908
7 *284:24 0.00209951
8 *284:12 0.00263481
9 *1391:S *1391:I1 1.17531e-05
10 *1391:S *1531:I 0.000103788
11 *1393:S *401:I 0
12 *1393:S *1323:A1 9.9247e-06
13 *1393:S *1394:I1 1.56728e-05
14 *1393:S *1533:I 0.000430961
15 *1393:S *1560:I 0.000471431
16 *1393:S *324:23 0.000106399
17 *284:12 *355:I 0.000977951
18 *284:12 *1530:I 0.000147098
19 *284:12 *318:10 0.000249673
20 *284:24 *337:43 0.000600308
21 *284:31 *1394:I1 2.81522e-06
22 *351:I *1393:S 5.12872e-06
23 *364:I *1393:S 0.000154143
24 *441:I *284:12 0.00204505
25 *450:I *284:12 7.16472e-05
26 *1391:I0 *284:12 0.000548523
27 *1392:I0 *284:24 4.67771e-06
28 *1392:I0 *284:31 2.45654e-05
29 *1393:I0 *1393:S 2.48965e-05
30 *1394:I0 *1393:S 2.12695e-05
31 *1394:I0 *284:31 4.02493e-05
32 *1422:D *284:12 1.25508e-05
33 *1424:D *1393:S 2.22784e-06
34 *1424:CLK *1393:S 0
35 *1425:D *284:24 0.000105493
36 *1425:D *284:31 0
37 *1442:D *284:24 2.52541e-05
38 *1463:D *1393:S 0
39 *1492:I *1393:S 5.47431e-06
40 *1589:I *1393:S 1.71326e-05
41 *146:30 *1393:S 0.000130241
42 *146:30 *284:24 8.24525e-05
43 *146:30 *284:31 4.09286e-05
44 *215:8 *1393:S 0.000484718
45 *243:79 *1393:S 1.823e-05
46 *248:89 *284:24 9.84747e-05
47 *274:159 *284:12 4.42024e-05
48 *276:216 *1393:S 2.85935e-05
*RES
1 *1513:Z *284:12 18.048 
2 *284:12 *284:24 22.548 
3 *284:24 *1392:S 4.5 
4 *284:24 *284:31 1.768 
5 *284:31 *1394:S 4.5 
6 *284:31 *1393:S 25.46 
7 *284:12 *1391:S 9.312 
*END

*D_NET *285 0.0410131
*CONN
*I *1512:I I *D gf180mcu_fd_sc_mcu7t5v0__buf_2
*I *433:I I *D gf180mcu_fd_sc_mcu7t5v0__antenna
*I *435:I I *D gf180mcu_fd_sc_mcu7t5v0__antenna
*I *434:I I *D gf180mcu_fd_sc_mcu7t5v0__antenna
*I *1513:I I *D gf180mcu_fd_sc_mcu7t5v0__dlyb_1
*I *1467:D I *D gf180mcu_fd_sc_mcu7t5v0__dffrnq_1
*I *1291:A1 I *D gf180mcu_fd_sc_mcu7t5v0__or2_1
*I *410:I I *D gf180mcu_fd_sc_mcu7t5v0__antenna
*I *361:I I *D gf180mcu_fd_sc_mcu7t5v0__antenna
*I *1514:Z O *D gf180mcu_fd_sc_mcu7t5v0__dlyb_1
*CAP
1 *1512:I 0.000238681
2 *433:I 0.000230503
3 *435:I 0
4 *434:I 0
5 *1513:I 8.55321e-05
6 *1467:D 7.41059e-05
7 *1291:A1 0.00039765
8 *410:I 6.01393e-05
9 *361:I 0.000462926
10 *1514:Z 0
11 *285:104 0.000275277
12 *285:57 0.000789084
13 *285:51 0.00372515
14 *285:33 0.00370223
15 *285:27 0.00145523
16 *285:21 0.00139471
17 *285:6 0.000654586
18 *285:4 0.000238681
19 *361:I *1334:A1 0.00114418
20 *361:I *1514:I 0.000219387
21 *361:I *1532:I 0.00224238
22 *361:I *338:12 0.000104304
23 *1512:I *1334:A1 1.40331e-05
24 *1512:I *1532:I 0.000166389
25 *1512:I *326:27 0.000747414
26 *1513:I *1530:I 0.000215267
27 *285:21 *1532:I 0.000158227
28 *285:27 *1557:I 0.000113016
29 *285:27 *1559:I 0.000150974
30 *285:27 *323:16 0.000133863
31 *285:27 *323:18 0.000408828
32 *285:33 *1440:RN 1.99235e-05
33 *285:51 *1304:A1 0.000579961
34 *285:51 *1385:I1 7.42486e-05
35 *285:51 *1388:I1 3.22108e-05
36 *285:51 *1435:RN 0.00249243
37 *285:51 *1530:I 0.000260296
38 *285:51 *1555:I 0
39 *285:51 *289:38 0
40 *285:51 *314:6 0.000541508
41 *285:51 *314:16 0.000162693
42 *285:51 *330:10 0.000450385
43 *285:51 *330:30 8.8491e-05
44 *285:51 *334:14 0.000408576
45 *285:57 *1304:A1 0.000127308
46 dout[1] *285:51 7.45804e-06
47 dout[3] *285:51 1.71324e-06
48 dout[4] *285:27 3.01088e-05
49 dout[4] *285:33 0.000111856
50 dout[5] *285:27 1.32779e-05
51 *366:I *285:51 0.000346468
52 *441:I *433:I 3.71793e-05
53 *441:I *285:27 0
54 *1291:A2 *1291:A1 1.58691e-05
55 *1310:A1 *1291:A1 0.000552516
56 *1310:A2 *410:I 1.33956e-05
57 *1310:A2 *285:57 3.64167e-07
58 *1310:B *1291:A1 1.26717e-05
59 *1310:B *285:51 0.000970073
60 *1324:B *361:I 1.13283e-05
61 *1327:A2 *285:51 0.000114807
62 *1347:A2 *285:51 0.00107892
63 *1348:A2 *285:51 0.00294086
64 *1348:A2 *285:57 0.000766111
65 *1351:A2 *1291:A1 0.00115748
66 *1385:I0 *285:51 0
67 *1391:I0 *285:21 1.9026e-05
68 *1398:I1 *1467:D 2.33885e-05
69 *1398:S *1467:D 7.75437e-05
70 *1445:D *1291:A1 5.28551e-05
71 *1582:I *285:51 0.00058855
72 *1583:I *285:51 0.000249992
73 *1584:I *285:51 0.00104843
74 *1586:I *1513:I 0.000334704
75 *1587:I *433:I 0.000419557
76 *1587:I *285:27 0.000326789
77 *1591:I *285:51 0.00105544
78 *146:30 *361:I 0.000382096
79 *212:13 *361:I 1.20974e-05
80 *232:16 *285:51 0.000714529
81 *232:18 *285:51 0.000219295
82 *256:10 *285:27 3.5618e-05
83 *257:8 *285:21 1.25277e-05
84 *260:12 *433:I 0.000346997
85 *269:10 *285:57 5.56117e-05
86 *269:29 *1291:A1 9.1598e-05
87 *274:159 *1513:I 3.09205e-05
88 *274:159 *285:51 0.00100649
89 *276:77 *285:57 0.000315223
90 *276:91 *410:I 0.000176038
91 *276:91 *285:57 0.000238523
92 *283:8 *1512:I 0.000155999
*RES
1 *1514:Z *285:4 4.5 
2 *285:4 *285:6 4.5 
3 *285:6 *361:I 16.28 
4 *285:6 *285:21 5.644 
5 *285:21 *285:27 9.256 
6 *285:27 *285:33 11.184 
7 *285:33 *285:51 47.972 
8 *285:51 *285:57 8.036 
9 *285:57 *410:I 5.02 
10 *285:57 *1291:A1 18.076 
11 *285:51 *1467:D 9.52 
12 *285:33 *1513:I 6.06 
13 *285:27 *434:I 4.5 
14 *285:21 *285:104 0.312 
15 *285:104 *435:I 4.5 
16 *285:104 *433:I 7.516 
17 *285:4 *1512:I 7.724 
*END

*D_NET *286 0.00443459
*CONN
*I *1597:I I *D gf180mcu_fd_sc_mcu7t5v0__buf_2
*I *1381:A2 I *D gf180mcu_fd_sc_mcu7t5v0__nor3_1
*I *1457:Q O *D gf180mcu_fd_sc_mcu7t5v0__dffsnq_1
*CAP
1 *1597:I 0.000680358
2 *1381:A2 0.000782225
3 *1457:Q 0
4 *286:4 0.00146258
5 *1381:A2 *1526:I 8.05215e-05
6 *1381:A2 *296:10 4.57057e-05
7 *1381:A2 *296:116 0.00010483
8 *1597:I *1457:SETN 0
9 *1597:I *1552:I 1.40331e-05
10 *1597:I *305:8 9.27762e-05
11 cmp_clk *1597:I 7.16355e-05
12 *1252:I *1381:A2 6.49171e-06
13 *1383:A2 *1597:I 0
14 *1458:D *1381:A2 0.000125898
15 *4:30 *1597:I 1.78817e-06
16 *100:16 *1381:A2 0.000564656
17 *121:24 *1381:A2 0.000401089
*RES
1 *1457:Q *286:4 4.5 
2 *286:4 *1381:A2 19.74 
3 *286:4 *1597:I 8.764 
*END

*D_NET *287 0.0211755
*CONN
*I *1305:B I *D gf180mcu_fd_sc_mcu7t5v0__oai21_1
*I *1256:I I *D gf180mcu_fd_sc_mcu7t5v0__clkinv_1
*I *1345:A1 I *D gf180mcu_fd_sc_mcu7t5v0__nor2_1
*I *1287:A1 I *D gf180mcu_fd_sc_mcu7t5v0__nand2_1
*I *1295:A1 I *D gf180mcu_fd_sc_mcu7t5v0__or2_1
*I *1294:A1 I *D gf180mcu_fd_sc_mcu7t5v0__nor2_2
*I *1515:Z O *D gf180mcu_fd_sc_mcu7t5v0__dlyb_1
*CAP
1 *1305:B 0.000663629
2 *1256:I 0.000423029
3 *1345:A1 0.00028853
4 *1287:A1 0.000541134
5 *1295:A1 0
6 *1294:A1 0.000141071
7 *1515:Z 0.000158738
8 *287:46 0.000899445
9 *287:44 0.000724967
10 *287:33 0.000548813
11 *287:20 0.00116441
12 *287:10 0.00152905
13 *1256:I *1551:I 0.000693953
14 *1256:I *305:12 0.000143295
15 *1287:A1 *363:I 0.000564302
16 *1287:A1 *304:12 2.1584e-05
17 *1305:B *1331:A1 0
18 *1305:B *343:12 0.000179359
19 *1345:A1 *304:12 9.15818e-05
20 *287:20 *1376:A2 2.56392e-05
21 *287:20 *1515:I 0.000101124
22 *287:20 *343:12 8.00851e-05
23 *287:33 *1294:A2 2.86026e-06
24 *287:33 *289:116 2.99776e-05
25 *287:44 *1548:I 0.000530173
26 *287:44 *289:116 0.000182695
27 *1287:A2 *1287:A1 3.13822e-07
28 *1287:A2 *287:33 0.000100875
29 *1349:A1 *1305:B 0.000699142
30 *1372:B *1287:A1 0.000189536
31 *1374:A1 *1287:A1 6.24244e-05
32 *1374:B2 *1287:A1 0.000440593
33 *1374:B2 *287:20 0.00150479
34 *1374:B2 *287:44 0.000660171
35 *1374:B2 *287:46 0.000507827
36 *1376:B *1287:A1 9.84747e-05
37 *1376:B *287:44 0.000693114
38 *1376:B *287:46 0.000536185
39 *1383:A3 *287:33 4.31695e-05
40 *1397:A2 *1294:A1 0.000198163
41 *1407:B2 *287:10 1.42738e-05
42 *1430:CLK *287:10 0.000323128
43 *1452:D *1345:A1 6.9185e-06
44 *1452:CLK *1256:I 3.22108e-05
45 *1453:D *1287:A1 0.000642636
46 *1502:I *1305:B 1.19922e-05
47 *1505:I *1294:A1 0.000103788
48 *1505:I *287:33 9.96348e-05
49 *1521:I *1305:B 6.18259e-05
50 *104:12 *1256:I 0.000737586
51 *105:14 *287:20 4.78687e-06
52 *105:14 *287:44 1.24616e-05
53 *110:14 *1294:A1 0.000123069
54 *110:14 *287:20 7.82031e-05
55 *110:33 *287:20 0.000378141
56 *110:33 *287:33 1.239e-05
57 *120:67 *1287:A1 1.91027e-05
58 *123:16 *287:10 0
59 *159:41 *1305:B 2.77775e-05
60 *165:6 *1345:A1 9.76253e-05
61 *223:36 *1256:I 0.000159025
62 *265:14 *1345:A1 0.000345914
63 *265:38 *1345:A1 0.000107519
64 *273:10 *1256:I 3.4596e-05
65 *274:14 *1294:A1 7.44657e-06
66 *274:14 *287:20 7.72843e-06
67 *274:34 *287:20 4.50458e-06
68 *274:47 *1305:B 0.00174548
69 *274:47 *287:20 0.000431314
70 *276:14 *1305:B 2.1322e-05
71 *280:48 *1287:A1 1.09973e-05
72 *280:72 *1287:A1 2.04819e-05
73 *280:72 *1345:A1 2.73939e-05
*RES
1 *1515:Z *287:10 10.248 
2 *287:10 *287:20 11.78 
3 *287:20 *1294:A1 5.852 
4 *287:20 *287:33 11.184 
5 *287:33 *1295:A1 4.5 
6 *287:33 *287:44 8.036 
7 *287:44 *287:46 1.56 
8 *287:46 *1287:A1 14.408 
9 *287:46 *1345:A1 19.768 
10 *287:44 *1256:I 13.888 
11 *287:10 *1305:B 15.864 
*END

*D_NET *288 0.0235647
*CONN
*I *1299:A2 I *D gf180mcu_fd_sc_mcu7t5v0__oai21_1
*I *1293:A3 I *D gf180mcu_fd_sc_mcu7t5v0__or3_1
*I *1281:A3 I *D gf180mcu_fd_sc_mcu7t5v0__nand4_1
*I *1288:A1 I *D gf180mcu_fd_sc_mcu7t5v0__aoi21_1
*I *1259:I I *D gf180mcu_fd_sc_mcu7t5v0__clkinv_1
*I *1381:A1 I *D gf180mcu_fd_sc_mcu7t5v0__nor3_1
*I *1516:Z O *D gf180mcu_fd_sc_mcu7t5v0__dlyb_1
*CAP
1 *1299:A2 0.000965068
2 *1293:A3 0
3 *1281:A3 2.42225e-05
4 *1288:A1 0
5 *1259:I 0.00105964
6 *1381:A1 0.000512606
7 *1516:Z 0.000686793
8 *288:76 0.00103319
9 *288:34 0.00162948
10 *288:32 0.000371191
11 *288:26 0.000632829
12 *288:20 0.00104957
13 *1259:I *1290:A2 3.89555e-05
14 *1299:A2 *1293:A1 1.823e-05
15 *1299:A2 *1293:A2 0.00025233
16 *1299:A2 *1299:A1 3.22108e-05
17 *1299:A2 *1465:RN 2.2879e-05
18 *1299:A2 *1527:I 0.000111075
19 *1299:A2 *1601:I 0.000462041
20 *1299:A2 *341:14 6.34406e-05
21 *1299:A2 *345:25 0.00150137
22 *1381:A1 *1460:RN 0.000147402
23 *1381:A1 *1461:RN 2.22313e-05
24 *1381:A1 *296:34 9.20565e-05
25 *1381:A1 *298:65 4.04605e-05
26 *1381:A1 *298:76 6.72912e-05
27 *288:20 *1465:RN 1.05545e-05
28 *288:26 *341:14 0.000876289
29 *288:76 *1293:A2 1.56603e-05
30 *288:76 *1465:RN 1.13128e-05
31 *376:I *288:20 0.000158525
32 *443:I *1299:A2 0.000871711
33 *1273:A2 *288:20 2.22625e-05
34 *1280:A1 *1381:A1 0.000104306
35 *1280:A1 *288:32 0.0015092
36 *1280:A1 *288:34 0.000350068
37 *1280:A3 *1281:A3 3.86178e-05
38 *1288:A2 *1259:I 0.000625664
39 *1369:A2 *1259:I 0.000184208
40 *1380:A1 *288:32 0.000464803
41 *1382:A1 *1281:A3 0.000182219
42 *1382:A1 *288:32 0.000455575
43 *1408:A3 *1299:A2 0.000159226
44 *1410:A3 *1299:A2 5.63044e-06
45 *1460:CLK *288:20 0.000106109
46 *1460:CLK *288:26 8.63452e-05
47 *1460:CLK *288:32 0.000174473
48 *1462:D *1299:A2 0.000384896
49 *1462:D *288:20 0.000253693
50 *1462:D *288:76 2.11308e-05
51 *1464:D *1299:A2 2.29665e-05
52 *1471:I *288:20 7.76395e-06
53 *1488:I *1299:A2 4.67599e-05
54 *1529:I *1299:A2 8.44565e-06
55 *1569:I *1299:A2 0.000883458
56 *1571:I *1381:A1 1.82337e-05
57 *4:30 *1299:A2 0.000171775
58 *4:30 *288:20 6.56199e-05
59 *86:16 *1259:I 0.000420289
60 *100:16 *1381:A1 0.000477012
61 *100:31 *288:26 4.42738e-06
62 *100:31 *288:32 6.9464e-06
63 *100:54 *1299:A2 0.00018031
64 *100:58 *1299:A2 0.000152285
65 *111:28 *1281:A3 4.07478e-05
66 *120:81 *288:20 4.19977e-05
67 *121:24 *1299:A2 0.000498837
68 *124:16 *288:20 1.82798e-05
69 *208:399 *288:20 7.18431e-05
70 *208:401 *288:20 3.37356e-05
71 *210:17 *1381:A1 0.000516131
72 *210:17 *288:32 0.000965181
73 *210:17 *288:34 0.000385232
74 *210:23 *1381:A1 0.000189208
75 *239:83 *288:20 0.00039932
76 *239:97 *288:26 2.88467e-05
*RES
1 *1516:Z *288:20 27.492 
2 *288:20 *288:26 11.6 
3 *288:26 *288:32 10.324 
4 *288:32 *288:34 1.144 
5 *288:34 *1381:A1 14.2 
6 *288:34 *1259:I 25.488 
7 *288:32 *1288:A1 9 
8 *288:26 *1281:A3 5.02 
9 *288:20 *288:76 0.52 
10 *288:76 *1293:A3 4.5 
11 *288:76 *1299:A2 44.292 
*END

*D_NET *289 0.0528209
*CONN
*I *1284:A1 I *D gf180mcu_fd_sc_mcu7t5v0__nand2_1
*I *1295:A2 I *D gf180mcu_fd_sc_mcu7t5v0__or2_1
*I *357:I I *D gf180mcu_fd_sc_mcu7t5v0__antenna
*I *362:I I *D gf180mcu_fd_sc_mcu7t5v0__antenna
*I *1257:I I *D gf180mcu_fd_sc_mcu7t5v0__clkinv_1
*I *363:I I *D gf180mcu_fd_sc_mcu7t5v0__antenna
*I *349:I I *D gf180mcu_fd_sc_mcu7t5v0__antenna
*I *1294:A2 I *D gf180mcu_fd_sc_mcu7t5v0__nor2_2
*I *396:I I *D gf180mcu_fd_sc_mcu7t5v0__antenna
*I *436:I I *D gf180mcu_fd_sc_mcu7t5v0__antenna
*I *395:I I *D gf180mcu_fd_sc_mcu7t5v0__antenna
*I *1395:A1 I *D gf180mcu_fd_sc_mcu7t5v0__nor2_1
*I *1378:A1 I *D gf180mcu_fd_sc_mcu7t5v0__nor2_1
*I *1517:Z O *D gf180mcu_fd_sc_mcu7t5v0__dlyb_1
*CAP
1 *1284:A1 0.000211984
2 *1295:A2 0
3 *357:I 0.000187514
4 *362:I 0
5 *1257:I 0
6 *363:I 0.000252569
7 *349:I 0.000760758
8 *1294:A2 0.000245952
9 *396:I 0.000442233
10 *436:I 0
11 *395:I 0
12 *1395:A1 0
13 *1378:A1 6.20044e-05
14 *1517:Z 3.88271e-05
15 *289:171 0.000187514
16 *289:134 0.00162657
17 *289:122 0.000803779
18 *289:118 0.000376101
19 *289:116 0.000475689
20 *289:99 0.00233361
21 *289:53 0.000926887
22 *289:38 0.00133884
23 *289:25 0.000896686
24 *289:14 0.0033778
25 *289:6 0.00532165
26 *396:I *1419:RN 0.000272968
27 *396:I *1420:RN 0.000381798
28 *396:I *1556:I 0.00105551
29 *396:I *315:19 0.000456578
30 *1284:A1 *1405:A1 0.000249314
31 *289:14 *292:16 0.00320831
32 *289:14 *292:78 0.0008792
33 *289:14 *332:8 0
34 *289:14 *332:40 0
35 *289:53 *404:I 0.000707233
36 *289:53 *1555:I 3.55967e-05
37 *289:53 *1556:I 0.000499043
38 *289:53 *315:19 0.000570671
39 *289:99 *1246:I 2.69795e-05
40 *289:99 *1311:A1 0.000199887
41 *289:99 *1548:I 0.000277855
42 *289:99 *292:47 0.000184505
43 *289:99 *302:27 0.000136603
44 *289:116 *1548:I 0.000148841
45 *289:134 *1379:A1 9.98451e-05
46 *289:134 *297:26 0.000549659
47 dac_p[6] *349:I 9.84747e-05
48 *353:I *289:14 0
49 *366:I *289:38 0
50 *366:I *289:53 0
51 *424:I *289:14 0.000123951
52 *1265:I *349:I 0.00016276
53 *1267:I *349:I 2.38064e-06
54 *1269:I *349:I 0.000364318
55 *1269:I *363:I 0.000216887
56 *1287:A1 *363:I 0.000564302
57 *1287:A2 *289:116 0.000247957
58 *1287:A2 *289:118 0.000612845
59 *1287:A2 *289:122 0.000540761
60 *1287:A2 *289:134 2.97547e-05
61 *1291:A2 *289:6 2.12609e-05
62 *1291:A2 *289:99 0.00025897
63 *1307:A2 *289:14 2.20822e-05
64 *1315:B *289:25 0.000772908
65 *1315:B *289:38 0.000801607
66 *1318:A1 *289:14 0
67 *1320:A2 *289:14 0.000237165
68 *1324:A2 *289:14 0
69 *1327:A2 *289:25 8.54146e-05
70 *1327:A2 *289:38 9.819e-05
71 *1347:B *289:14 0.000117619
72 *1354:B *289:6 1.84169e-05
73 *1354:B *289:14 0.00502748
74 *1354:B *289:99 1.84221e-05
75 *1361:A2 *289:99 0.000384395
76 *1363:B *289:99 0.00076388
77 *1366:A2 *349:I 6.10723e-05
78 *1367:A2 *289:134 8.60322e-06
79 *1372:B *349:I 0.000543234
80 *1372:B *363:I 0.00019653
81 *1373:A1 *289:99 0.000192993
82 *1374:B1 *289:134 3.47254e-05
83 *1374:B2 *289:134 4.67771e-06
84 *1378:A2 *1378:A1 1.07369e-05
85 *1383:A3 *1294:A2 0.000367043
86 *1383:A3 *289:118 0
87 *1385:I0 *289:53 0.000394241
88 *1386:S *289:14 0
89 *1395:A2 *1378:A1 6.8199e-07
90 *1397:A2 *1284:A1 0.000198163
91 *1398:I1 *289:99 0
92 *1400:A1 *289:14 0.000263484
93 *1406:A1 *289:99 0.000316249
94 *1416:CLK *289:14 0.000202476
95 *1435:D *289:14 8.94086e-06
96 *1451:D *349:I 0.00014779
97 *1452:D *289:134 0.000530973
98 *1452:CLK *357:I 0.000161668
99 *1470:I *289:99 3.73779e-05
100 *1479:I *289:99 0.00037183
101 *1481:I *289:14 9.37025e-05
102 *1563:I *289:14 0.000196653
103 *1564:I *349:I 1.88832e-05
104 *1581:I *289:38 0.000193364
105 *1581:I *289:53 0.000297732
106 *7:26 *289:38 0.000261273
107 *94:16 *289:14 7.5748e-05
108 *104:12 *357:I 0.000109234
109 *108:14 *289:99 0.000475716
110 *110:14 *289:99 6.8199e-07
111 *110:14 *289:116 0
112 *120:12 *349:I 0.000111773
113 *120:67 *363:I 0.000251886
114 *120:67 *1284:A1 8.77841e-06
115 *120:67 *1294:A2 0.000428913
116 *120:67 *289:118 0
117 *120:67 *289:134 0.000322737
118 *134:24 *289:14 0.000130637
119 *175:16 *289:99 9.95709e-05
120 *187:20 *289:14 0.000187119
121 *247:24 *349:I 0.000931484
122 *248:48 *363:I 0.00057304
123 *249:12 *349:I 2.89755e-05
124 *252:10 *396:I 0.00033778
125 *269:65 *289:14 0.000218601
126 *269:65 *289:25 0.000283521
127 *269:69 *289:14 0.000698045
128 *273:10 *357:I 0.000182695
129 *273:10 *289:118 4.27515e-05
130 *273:10 *289:122 0.000162454
131 *273:10 *289:134 0.00016992
132 *273:12 *289:134 1.12077e-05
133 *273:61 *349:I 1.26446e-05
134 *273:61 *289:134 3.52587e-05
135 *274:14 *1284:A1 8.42461e-05
136 *276:114 *289:38 2.42339e-05
137 *276:147 *1284:A1 9.10593e-05
138 *285:51 *289:38 0
139 *287:33 *1294:A2 2.86026e-06
140 *287:33 *289:116 2.99776e-05
141 *287:44 *289:116 0.000182695
*RES
1 *1517:Z *289:6 4.812 
2 *289:6 *289:14 41.448 
3 *289:14 *1378:A1 4.812 
4 *289:14 *289:25 6.476 
5 *289:25 *1395:A1 9 
6 *289:25 *289:38 11.78 
7 *289:38 *395:I 4.5 
8 *289:38 *289:53 6.76 
9 *289:53 *436:I 4.5 
10 *289:53 *396:I 11.26 
11 *289:6 *289:99 27.408 
12 *289:99 *1294:A2 14.644 
13 *289:99 *289:116 6.996 
14 *289:116 *289:118 1.768 
15 *289:118 *289:122 1.872 
16 *289:122 *289:134 19.012 
17 *289:134 *349:I 22.028 
18 *289:134 *363:I 8.556 
19 *289:122 *1257:I 9 
20 *289:118 *289:171 4.5 
21 *289:171 *362:I 4.5 
22 *289:171 *357:I 6.476 
23 *289:116 *1295:A2 9 
24 *1294:A2 *1284:A1 19.872 
*END

*D_NET *290 0.0518524
*CONN
*I *1248:I I *D gf180mcu_fd_sc_mcu7t5v0__clkinv_1
*I *348:I I *D gf180mcu_fd_sc_mcu7t5v0__antenna
*I *1272:A3 I *D gf180mcu_fd_sc_mcu7t5v0__or4_2
*I *356:I I *D gf180mcu_fd_sc_mcu7t5v0__antenna
*I *1271:A1 I *D gf180mcu_fd_sc_mcu7t5v0__nor2_1
*I *355:I I *D gf180mcu_fd_sc_mcu7t5v0__antenna
*I *370:I I *D gf180mcu_fd_sc_mcu7t5v0__antenna
*I *1321:A1 I *D gf180mcu_fd_sc_mcu7t5v0__nor2_4
*I *1337:A1 I *D gf180mcu_fd_sc_mcu7t5v0__and3_1
*I *1325:A3 I *D gf180mcu_fd_sc_mcu7t5v0__nor4_4
*I *368:I I *D gf180mcu_fd_sc_mcu7t5v0__antenna
*I *437:I I *D gf180mcu_fd_sc_mcu7t5v0__antenna
*I *374:I I *D gf180mcu_fd_sc_mcu7t5v0__antenna
*I *1518:Z O *D gf180mcu_fd_sc_mcu7t5v0__buf_2
*CAP
1 *1248:I 0.000376876
2 *348:I 0.000189949
3 *1272:A3 0
4 *356:I 0
5 *1271:A1 0.000669828
6 *355:I 0.00274161
7 *370:I 0
8 *1321:A1 0.000126098
9 *1337:A1 0.000725678
10 *1325:A3 0
11 *368:I 0.000280055
12 *437:I 0
13 *374:I 0.000140125
14 *1518:Z 0
15 *290:188 0.00132953
16 *290:151 0.00179813
17 *290:129 0.00174582
18 *290:123 0.00138022
19 *290:61 0.0011214
20 *290:55 0.000715901
21 *290:40 0.000987553
22 *290:34 0.000958219
23 *290:21 0.000444804
24 *290:10 0.000450377
25 *290:6 0.00305186
26 *355:I *1334:A1 0.00010125
27 *355:I *1440:RN 5.91958e-05
28 *355:I *1558:I 3.75797e-05
29 *355:I *298:106 0.000129552
30 *355:I *317:24 1.78817e-06
31 *355:I *335:12 7.93075e-05
32 *1271:A1 *1445:RN 0.00106024
33 *1271:A1 *1456:RN 0.00024209
34 *1337:A1 *312:14 4.67771e-06
35 *290:10 *1390:I1 0.00010051
36 *290:10 *336:31 5.23324e-05
37 *290:34 *1390:I1 0.000257639
38 *290:34 *327:53 8.7843e-05
39 *290:34 *327:55 0.000116751
40 *290:129 *292:47 0.000322868
41 *290:151 *1258:I 0.00112212
42 *290:151 *1270:A2 0.000185538
43 *290:151 *291:79 0.000715356
44 *290:151 *293:54 0.000482163
45 *290:151 *302:27 0
46 *290:151 *340:37 0.000840779
47 *290:188 *1430:SETN 9.35542e-06
48 *290:188 *1550:I 9.35542e-06
49 *290:188 *312:29 0.00158355
50 *1305:A1 *348:I 0.000515201
51 *1325:A1 *368:I 0
52 *1325:A2 *290:40 8.12317e-05
53 *1325:A2 *290:55 6.98602e-05
54 *1325:A2 *290:61 6.35093e-06
55 *1325:A4 *1337:A1 0
56 *1328:A1 *355:I 0.000936219
57 *1328:A1 *290:10 5.88727e-05
58 *1328:B *290:34 0
59 *1328:B *290:40 0
60 *1329:A3 *1321:A1 0.000341532
61 *1329:A4 *368:I 4.18157e-05
62 *1329:A4 *290:55 1.18566e-05
63 *1329:A4 *290:61 4.40477e-05
64 *1330:A2 *290:34 0.000549582
65 *1332:B *290:34 0
66 *1335:B *355:I 0
67 *1337:A2 *1337:A1 1.84221e-05
68 *1341:A1 *290:40 1.37801e-05
69 *1341:A3 *1337:A1 1.36398e-06
70 *1341:A4 *1337:A1 0
71 *1341:A4 *290:129 4.69811e-05
72 *1341:A4 *290:188 1.56607e-05
73 *1349:A1 *1248:I 0.000152007
74 *1349:A1 *290:188 0.00229668
75 *1354:B *1271:A1 0.000573637
76 *1362:B *374:I 2.61971e-06
77 *1362:B *290:10 6.383e-06
78 *1365:A1 *290:34 0.000120523
79 *1372:A2 *348:I 0.000186453
80 *1400:A1 *290:151 0.000363139
81 *1400:A2 *290:151 2.54037e-05
82 *1400:B2 *290:129 0
83 *1400:B2 *290:188 0
84 *1401:A2 *290:151 0.000452453
85 *1422:D *355:I 8.91112e-05
86 *1427:D *290:151 2.14739e-05
87 *1441:D *355:I 3.57634e-06
88 *1441:CLK *355:I 0.000689673
89 *1445:CLK *1271:A1 0.000349626
90 *1445:CLK *290:151 0.000678463
91 *1448:CLK *1271:A1 0.00046761
92 *1518:I *374:I 0.000320015
93 *1518:I *290:10 0.000413421
94 *1537:I *1271:A1 0.000581283
95 *1544:I *368:I 0.000279197
96 *1544:I *290:40 0.000386281
97 *1574:I *1271:A1 0.00114778
98 *1575:I *1271:A1 5.35294e-06
99 *96:12 *1248:I 0.000489437
100 *96:12 *290:188 0.00178908
101 *97:60 *1337:A1 8.02875e-05
102 *97:60 *290:61 0.00027784
103 *108:43 *1337:A1 1.04732e-05
104 *109:24 *290:151 0.00127374
105 *123:45 *1248:I 3.13206e-05
106 *135:20 *348:I 6.8763e-06
107 *177:22 *290:34 4.97642e-06
108 *177:22 *290:40 1.72241e-05
109 *191:20 *355:I 0
110 *192:8 *290:129 0.00017298
111 *192:8 *290:151 9.76253e-05
112 *205:25 *1321:A1 0.000324069
113 *206:14 *290:129 0.000183964
114 *209:23 *1271:A1 0.000740565
115 *209:25 *1271:A1 0.000388464
116 *219:18 *1271:A1 3.4596e-05
117 *229:51 *1337:A1 0.000211054
118 *229:51 *290:61 6.51159e-05
119 *229:72 *1337:A1 0.000117037
120 *231:50 *348:I 0.00028351
121 *233:18 *290:129 0.000435571
122 *241:62 *1271:A1 0.000182829
123 *243:21 *1271:A1 0.000966381
124 *243:67 *1321:A1 0.000455184
125 *243:101 *355:I 0.00011582
126 *265:38 *1271:A1 1.823e-05
127 *266:20 *374:I 2.12538e-05
128 *268:25 *368:I 0.000109597
129 *268:25 *290:40 3.19693e-05
130 *274:159 *355:I 1.86302e-05
131 *276:46 *1271:A1 5.6311e-05
132 *276:46 *290:151 3.63255e-05
133 *280:10 *290:129 0.00262535
134 *284:12 *355:I 0.000977951
*RES
1 *1518:Z *290:6 9 
2 *290:6 *290:10 2.704 
3 *290:10 *374:I 9.936 
4 *290:10 *290:21 4.5 
5 *290:21 *437:I 4.5 
6 *290:21 *290:34 8.348 
7 *290:34 *290:40 7.828 
8 *290:40 *368:I 7.1 
9 *290:40 *290:55 5.644 
10 *290:55 *290:61 7.412 
11 *290:61 *1325:A3 4.5 
12 *290:61 *1337:A1 9.7 
13 *290:55 *1321:A1 11.392 
14 *290:34 *370:I 9 
15 *290:6 *355:I 29.072 
16 *1325:A3 *290:123 9 
17 *290:123 *290:129 13.444 
18 *290:129 *290:151 23.664 
19 *290:151 *1271:A1 25.148 
20 *290:151 *356:I 4.5 
21 *290:129 *1272:A3 4.5 
22 *290:123 *290:188 15.732 
23 *290:188 *348:I 15.684 
24 *290:188 *1248:I 7.932 
*END

*D_NET *291 0.0228683
*CONN
*I *1272:A2 I *D gf180mcu_fd_sc_mcu7t5v0__or4_2
*I *1270:A2 I *D gf180mcu_fd_sc_mcu7t5v0__nor2_2
*I *1316:A2 I *D gf180mcu_fd_sc_mcu7t5v0__and2_1
*I *1312:A2 I *D gf180mcu_fd_sc_mcu7t5v0__and3_1
*I *1247:I I *D gf180mcu_fd_sc_mcu7t5v0__inv_2
*I *1399:A2 I *D gf180mcu_fd_sc_mcu7t5v0__oai22_4
*I *1519:Z O *D gf180mcu_fd_sc_mcu7t5v0__buf_2
*CAP
1 *1272:A2 0
2 *1270:A2 0.000377986
3 *1316:A2 0.000416074
4 *1312:A2 0.000393503
5 *1247:I 7.34948e-05
6 *1399:A2 0.00140902
7 *1519:Z 0.000305884
8 *291:79 0.00110839
9 *291:44 0.00136448
10 *291:18 0.00122067
11 *291:10 0.00132934
12 *1270:A2 *1270:A1 0.000490958
13 *1270:A2 *1548:I 7.2883e-05
14 *1316:A2 *404:I 0.00115728
15 *1316:A2 *1313:A1 0.000328552
16 *1316:A2 *1327:A1 0.000771989
17 *1316:A2 *328:60 0.000383638
18 *1399:A2 *312:29 0.000273605
19 *291:10 *404:I 0.000214563
20 *291:10 *292:16 0
21 *291:18 *292:8 4.65694e-05
22 *291:18 *312:29 0.000162958
23 *291:44 *404:I 0.00166257
24 *291:44 *292:16 4.29351e-06
25 *291:44 *292:78 1.607e-05
26 *291:44 *328:10 2.64624e-05
27 *291:79 *312:29 0
28 *291:79 *340:37 2.46957e-05
29 *353:I *1316:A2 0.000213915
30 *353:I *291:44 6.85626e-05
31 *1264:I *291:79 0
32 *1311:A2 *1270:A2 4.26493e-06
33 *1312:A3 *1312:A2 0.000113027
34 *1328:B *1312:A2 0
35 *1363:B *1270:A2 0.000182219
36 *1399:A1 *291:79 1.71326e-05
37 *1400:A2 *1270:A2 6.15743e-05
38 *1400:A2 *291:79 0.000189508
39 *1400:A3 *291:79 0.000101602
40 *1400:B2 *291:79 7.80235e-06
41 *1437:CLK *1312:A2 0.00046846
42 *1480:I *1399:A2 8.55968e-05
43 *1480:I *291:18 5.51499e-05
44 *1507:I *1399:A2 2.37445e-05
45 *1546:I *1399:A2 4.06938e-05
46 *206:22 *1270:A2 0.000597169
47 *208:123 *1399:A2 2.6155e-05
48 *229:51 *291:44 3.40995e-06
49 *230:39 *1270:A2 0
50 *230:39 *1312:A2 0.000899123
51 *240:12 *291:10 0.000259426
52 *240:12 *291:18 8.87721e-05
53 *240:12 *291:44 0
54 *240:23 *291:79 0.000406972
55 *243:21 *291:10 5.09816e-05
56 *243:36 *291:44 0.000214263
57 *277:18 *1312:A2 0.000465545
58 *277:63 *1312:A2 0.000555601
59 *280:10 *1270:A2 0.000911288
60 *280:10 *291:79 0.00221949
61 *290:151 *1270:A2 0.000185538
62 *290:151 *291:79 0.000715356
*RES
1 *1519:Z *291:10 11.704 
2 *291:10 *291:18 7.932 
3 *291:18 *1399:A2 9.284 
4 *291:18 *1247:I 5.02 
5 *291:10 *291:44 14.512 
6 *291:44 *1312:A2 14.304 
7 *291:44 *1316:A2 14.616 
8 *1399:A2 *291:79 17.736 
9 *291:79 *1270:A2 13.992 
10 *291:79 *1272:A2 9 
*END

*D_NET *292 0.0328762
*CONN
*I *1307:A1 I *D gf180mcu_fd_sc_mcu7t5v0__and3_1
*I *1316:A1 I *D gf180mcu_fd_sc_mcu7t5v0__and2_1
*I *1272:A1 I *D gf180mcu_fd_sc_mcu7t5v0__or4_2
*I *1270:A1 I *D gf180mcu_fd_sc_mcu7t5v0__nor2_2
*I *1311:A1 I *D gf180mcu_fd_sc_mcu7t5v0__nor2_2
*I *1246:I I *D gf180mcu_fd_sc_mcu7t5v0__inv_2
*I *1520:Z O *D gf180mcu_fd_sc_mcu7t5v0__dlyb_1
*CAP
1 *1307:A1 0.000126988
2 *1316:A1 0.000294543
3 *1272:A1 0
4 *1270:A1 0.000178977
5 *1311:A1 3.21165e-05
6 *1246:I 0.00137282
7 *1520:Z 0.000143321
8 *292:78 0.00142604
9 *292:47 0.000421518
10 *292:41 0.000618646
11 *292:16 0.00262029
12 *292:8 0.00198706
13 *1246:I *1448:RN 0.000482806
14 *1307:A1 *1327:A1 0.00020446
15 *1307:A1 *328:60 0.000245121
16 *1311:A1 *302:27 0.000341532
17 *1316:A1 *1327:A1 0.00120834
18 *1316:A1 *1353:C 8.95945e-05
19 *1316:A1 *328:60 7.80761e-05
20 *292:16 *308:18 0.000210849
21 *292:41 *308:18 0.0010753
22 *292:47 *302:27 0.000317516
23 *292:78 *404:I 9.69092e-06
24 *292:78 *1353:C 1.63725e-06
25 dac_p[3] *1246:I 1.20718e-05
26 dac_p[6] *1246:I 0.000186231
27 dac_p[7] *1246:I 0.000178346
28 *359:I *1246:I 6.91632e-05
29 *1270:A2 *1270:A1 0.000490958
30 *1272:A4 *292:47 0.00017691
31 *1291:A2 *1246:I 0.00250944
32 *1313:A2 *1316:A1 0.00104876
33 *1313:A2 *292:8 0
34 *1313:A2 *292:78 0.000246245
35 *1328:B *1316:A1 3.33434e-06
36 *1351:B *1246:I 0.000378334
37 *1363:B *1270:A1 0.000253244
38 *1366:B *1246:I 0.000491544
39 *1400:A1 *292:16 0.000880306
40 *1479:I *1270:A1 7.89589e-05
41 *1487:I *1246:I 0.00011329
42 *94:16 *1246:I 4.40813e-05
43 *108:14 *292:47 3.95396e-05
44 *168:22 *1246:I 0.00102844
45 *175:16 *1246:I 3.26833e-05
46 *206:22 *292:47 0.000533507
47 *230:39 *1270:A1 3.05326e-05
48 *233:18 *292:47 0.00111502
49 *239:12 *292:16 0.00115561
50 *239:41 *292:16 0.000548253
51 *239:41 *292:41 0.00282074
52 *280:10 *292:47 3.46858e-05
53 *289:14 *292:16 0.00320831
54 *289:14 *292:78 0.0008792
55 *289:99 *1246:I 2.69795e-05
56 *289:99 *1311:A1 0.000199887
57 *289:99 *292:47 0.000184505
58 *290:129 *292:47 0.000322868
59 *291:10 *292:16 0
60 *291:18 *292:8 4.65694e-05
61 *291:44 *292:16 4.29351e-06
62 *291:44 *292:78 1.607e-05
*RES
1 *1520:Z *292:8 9.936 
2 *292:8 *292:16 15.628 
3 *292:16 *1246:I 28.476 
4 *292:16 *292:41 12.3 
5 *292:41 *292:47 8.66 
6 *292:47 *1311:A1 5.436 
7 *292:47 *1270:A1 15.58 
8 *292:41 *1272:A1 9 
9 *292:8 *292:78 12.3 
10 *292:78 *1316:A1 18.18 
11 *292:78 *1307:A1 6.268 
*END

*D_NET *293 0.0218676
*CONN
*I *1292:A2 I *D gf180mcu_fd_sc_mcu7t5v0__oai22_4
*I *1403:A2 I *D gf180mcu_fd_sc_mcu7t5v0__oai211_1
*I *1399:B2 I *D gf180mcu_fd_sc_mcu7t5v0__oai22_4
*I *1258:I I *D gf180mcu_fd_sc_mcu7t5v0__clkinv_1
*I *1290:A2 I *D gf180mcu_fd_sc_mcu7t5v0__nor2_1
*I *1284:A2 I *D gf180mcu_fd_sc_mcu7t5v0__nand2_1
*I *1521:Z O *D gf180mcu_fd_sc_mcu7t5v0__buf_2
*CAP
1 *1292:A2 0.000137885
2 *1403:A2 0
3 *1399:B2 0
4 *1258:I 0.000255355
5 *1290:A2 0.00179436
6 *1284:A2 0.000108083
7 *1521:Z 4.2145e-05
8 *293:54 0.000993139
9 *293:22 0.00211345
10 *293:14 0.00103216
11 *293:12 0.000335764
12 *293:6 0.00043242
13 *1290:A2 *1376:A2 0.000452841
14 *1290:A2 *1548:I 0.000376701
15 *1292:A2 *302:10 9.35542e-06
16 *1292:A2 *343:12 0.000102462
17 *293:12 *302:10 0.0001146
18 *293:14 *1405:A1 0.000116476
19 *293:22 *1405:A1 0.000895884
20 *293:54 *1376:A2 0.000356821
21 *293:54 *340:37 0.000302981
22 *431:I *1290:A2 0
23 *1259:I *1290:A2 3.89555e-05
24 *1264:I *293:54 0
25 *1369:A2 *1290:A2 0.000136603
26 *1372:A2 *1290:A2 6.83293e-05
27 *1376:A1 *1290:A2 5.86023e-06
28 *1377:A3 *1290:A2 0.000349504
29 *1383:A1 *1290:A2 0.000377698
30 *1400:A1 *1258:I 0.000328273
31 *1400:A1 *293:54 0.000557671
32 *1401:A2 *1258:I 0.000627833
33 *1402:A2 *293:54 0.000461814
34 *1402:A3 *293:54 0.000173797
35 *1403:B *293:12 0.000962265
36 *1403:B *293:14 0.000246151
37 *1407:A1 *1290:A2 0.000975367
38 *1407:B2 *293:54 0.000145815
39 *1452:D *1290:A2 0
40 *1469:I *1292:A2 0.000113199
41 *1469:I *293:12 0.0002182
42 *1571:I *1290:A2 0.000220596
43 *108:14 *293:54 0.000402871
44 *108:27 *293:54 0.000591174
45 *109:24 *1258:I 1.40331e-05
46 *118:14 *293:12 0.000947665
47 *118:14 *293:14 0.000416933
48 *118:14 *293:22 0.000904691
49 *208:19 *293:22 0.000141514
50 *208:371 *1290:A2 0.000210864
51 *208:371 *293:22 1.56603e-05
52 *208:385 *1290:A2 8.28681e-05
53 *230:39 *1258:I 2.27921e-05
54 *272:59 *1258:I 4.08012e-05
55 *274:14 *1284:A2 0.00038076
56 *274:14 *1290:A2 4.69809e-05
57 *274:14 *293:22 9.35542e-06
58 *276:20 *293:14 2.85553e-05
59 *276:46 *1258:I 3.87278e-06
60 *282:29 *293:54 2.10925e-05
61 *290:151 *1258:I 0.00112212
62 *290:151 *293:54 0.000482163
*RES
1 *1521:Z *293:6 4.812 
2 *293:6 *293:12 8.868 
3 *293:12 *293:14 1.352 
4 *293:14 *293:22 8.556 
5 *293:22 *1284:A2 5.956 
6 *293:22 *1290:A2 28.996 
7 *293:14 *293:54 13.34 
8 *293:54 *1258:I 17.452 
9 *293:54 *1399:B2 4.5 
10 *293:12 *1403:A2 9 
11 *293:6 *1292:A2 5.644 
*END

*D_NET *294 0.0129465
*CONN
*I *1375:A3 I *D gf180mcu_fd_sc_mcu7t5v0__nor3_1
*I *1305:A2 I *D gf180mcu_fd_sc_mcu7t5v0__oai21_1
*I *1407:A2 I *D gf180mcu_fd_sc_mcu7t5v0__oai221_4
*I *1522:Z O *D gf180mcu_fd_sc_mcu7t5v0__dlyb_1
*CAP
1 *1375:A3 0.00190507
2 *1305:A2 0.000515137
3 *1407:A2 0.000210749
4 *1522:Z 0.00190507
5 *294:4 0.000725885
6 *1305:A2 *312:14 4.64235e-05
7 *1375:A3 *1432:RN 0.000133923
8 *1375:A3 *1601:I 3.22108e-05
9 *1375:A3 *296:116 0.000607091
10 *1375:A3 *312:14 0.00019092
11 *1283:A1 *1375:A3 0.00296488
12 *1349:A1 *1305:A2 0
13 *1349:A1 *1375:A3 0
14 *1349:A1 *1407:A2 0.000247007
15 *1375:A2 *1375:A3 0.000254586
16 *1408:B *1375:A3 0.000439875
17 *1409:B2 *1375:A3 2.27998e-05
18 *1414:A3 *1375:A3 0.000332578
19 *1415:A2 *1375:A3 1.59052e-05
20 *1433:D *1375:A3 0.00143724
21 *1466:CLK *1375:A3 4.60139e-05
22 *1488:I *1375:A3 0.000254586
23 *1502:I *1305:A2 0.000109233
24 *99:44 *1375:A3 0.00015494
25 *170:26 *1375:A3 2.21141e-05
26 *214:26 *1375:A3 0.000178303
27 *214:41 *1375:A3 0.000194004
*RES
1 *1522:Z *294:4 4.5 
2 *294:4 *1407:A2 6.996 
3 *294:4 *1305:A2 8.348 
4 *1522:Z *1375:A3 37.968 
*END

*D_NET *295 0.0172347
*CONN
*I *1448:RN I *D gf180mcu_fd_sc_mcu7t5v0__dffrnq_1
*I *1548:I I *D gf180mcu_fd_sc_mcu7t5v0__clkbuf_1
*I *1523:Z O *D gf180mcu_fd_sc_mcu7t5v0__dlyb_1
*CAP
1 *1448:RN 0.000555202
2 *1548:I 0.00252081
3 *1523:Z 0
4 *295:4 0.00307601
5 *1548:I *1345:A2 0.000319003
6 *1548:I *1551:I 0.000131739
7 *1548:I *304:12 4.36433e-05
8 *1548:I *342:30 0.00119276
9 *391:I *1448:RN 6.26602e-06
10 *1246:I *1448:RN 0.000482806
11 *1249:I *1548:I 0.000532692
12 *1265:I *1548:I 0.000118867
13 *1269:I *1548:I 2.35898e-05
14 *1270:A2 *1548:I 7.2883e-05
15 *1290:A2 *1548:I 0.000376701
16 *1351:B *1448:RN 8.88134e-05
17 *1361:A1 *1448:RN 0.00126918
18 *1363:B *1448:RN 0.000477997
19 *1363:B *1548:I 0.000227971
20 *1366:A2 *1548:I 0.000104752
21 *1369:A2 *1548:I 0
22 *1369:B *1548:I 0.00108493
23 *1372:A2 *1548:I 0.000163498
24 *1383:A3 *1548:I 0.000566896
25 *1404:A2 *1548:I 0.000484299
26 *1407:A1 *1548:I 2.73715e-06
27 *1426:D *1448:RN 5.10196e-05
28 *1429:D *1548:I 2.46831e-05
29 *1479:I *1548:I 0.000149306
30 *1493:I *1548:I 0.00116646
31 *1510:I *1548:I 4.6396e-06
32 *1567:I *1548:I 4.55636e-06
33 *1571:I *1548:I 4.79725e-05
34 *97:14 *1548:I 1.73106e-05
35 *104:12 *1548:I 1.91479e-06
36 *105:14 *1548:I 2.01107e-05
37 *168:22 *1448:RN 0.00026342
38 *209:6 *1448:RN 4.78801e-05
39 *245:31 *1448:RN 6.86024e-05
40 *245:31 *1548:I 0.000284219
41 *248:48 *1548:I 7.65008e-05
42 *248:65 *1548:I 8.33895e-05
43 *279:10 *1548:I 4.18042e-05
44 *287:44 *1548:I 0.000530173
45 *289:99 *1548:I 0.000277855
46 *289:116 *1548:I 0.000148841
*RES
1 *1523:Z *295:4 4.5 
2 *295:4 *1548:I 39.916 
3 *295:4 *1448:RN 20.26 
*END

*D_NET *296 0.0587726
*CONN
*I *401:I I *D gf180mcu_fd_sc_mcu7t5v0__antenna
*I *445:I I *D gf180mcu_fd_sc_mcu7t5v0__antenna
*I *409:I I *D gf180mcu_fd_sc_mcu7t5v0__antenna
*I *1426:RN I *D gf180mcu_fd_sc_mcu7t5v0__dffrnq_1
*I *1445:RN I *D gf180mcu_fd_sc_mcu7t5v0__dffrnq_1
*I *1456:RN I *D gf180mcu_fd_sc_mcu7t5v0__dffrnq_1
*I *403:I I *D gf180mcu_fd_sc_mcu7t5v0__antenna
*I *1547:Z O *D gf180mcu_fd_sc_mcu7t5v0__buf_1
*CAP
1 *401:I 5.42666e-05
2 *445:I 0
3 *409:I 0.000245468
4 *1426:RN 8.63876e-05
5 *1445:RN 0.000911905
6 *1456:RN 4.25637e-05
7 *403:I 0.000258667
8 *1547:Z 0.000516902
9 *296:118 0.000245468
10 *296:116 0.00420725
11 *296:69 0.00145988
12 *296:61 0.00083915
13 *296:46 0.00186944
14 *296:34 0.00355915
15 *296:10 0.00686561
16 *1445:RN *328:16 1.07369e-05
17 *296:10 *298:76 1.19766e-05
18 *296:34 *1460:RN 0.000272089
19 *296:34 *297:26 0.00116622
20 *296:34 *298:65 0
21 *296:34 *342:30 4.4504e-06
22 *296:46 *297:26 0.00155277
23 *296:116 *1434:RN 0.000191452
24 *296:116 *1601:I 0.000176112
25 busy *403:I 2.73715e-06
26 dac_n[6] *296:10 0.000176867
27 dac_n[7] *296:10 0.000204737
28 dac_p[3] *296:46 0.00131618
29 samp_bot *296:61 6.41072e-05
30 *351:I *401:I 0.000164116
31 *364:I *401:I 5.0164e-05
32 *364:I *296:116 0.000162038
33 *369:I *409:I 0
34 *382:I *296:116 3.51479e-05
35 *414:I *296:116 6.66942e-05
36 *418:I *296:116 0.000226745
37 *1249:I *296:34 0
38 *1252:I *296:10 0
39 *1260:I *296:46 0
40 *1260:I *296:61 0.000125405
41 *1262:I *296:61 3.62815e-05
42 *1271:A1 *1445:RN 0.00106024
43 *1271:A1 *1456:RN 0.00024209
44 *1277:A1 *296:116 1.77267e-05
45 *1277:A2 *296:116 0
46 *1280:A2 *296:34 8.98956e-05
47 *1283:A1 *296:116 0.000328378
48 *1291:A2 *296:69 1.35291e-05
49 *1310:B *1426:RN 3.82231e-05
50 *1324:B *409:I 0.000328849
51 *1348:A1 *403:I 0
52 *1348:A1 *296:46 0.000110444
53 *1348:A2 *296:61 0.00275095
54 *1350:B *1445:RN 0.00027259
55 *1354:B *296:46 0.000485513
56 *1354:B *296:69 0.00017298
57 *1363:A1 *296:46 0.00030398
58 *1366:A2 *296:34 7.96263e-06
59 *1369:B *296:34 0.000114168
60 *1374:A1 *296:34 7.20787e-05
61 *1375:A3 *296:116 0.000607091
62 *1381:A1 *296:34 9.20565e-05
63 *1381:A2 *296:10 4.57057e-05
64 *1381:A2 *296:116 0.00010483
65 *1384:A1 *296:116 0.000155224
66 *1384:B *296:34 0
67 *1384:B *296:116 0.00016193
68 *1393:S *401:I 0
69 *1398:S *1445:RN 0
70 *1408:B *296:116 4.46991e-05
71 *1409:B2 *296:116 7.46156e-05
72 *1414:A3 *296:116 0.000332578
73 *1432:D *296:116 0.000111928
74 *1445:D *296:61 0.00286678
75 *1446:D *1445:RN 0.000180228
76 *1447:D *296:69 1.37804e-05
77 *1450:D *296:34 0.000228047
78 *1450:D *296:46 0.000346558
79 *1454:D *296:34 0.000300797
80 *1458:D *296:10 0.000123923
81 *1458:D *296:116 5.06107e-05
82 *1459:D *296:69 0.00035757
83 *1460:D *296:116 0.00116345
84 *1476:I *296:116 3.56338e-05
85 *1503:I *296:46 0.00132331
86 *1537:I *1445:RN 0.000549022
87 *1567:I *296:10 7.29264e-05
88 *1570:I *296:34 1.40117e-05
89 *1571:I *296:34 0.000647367
90 *1575:I *296:46 7.29541e-06
91 *86:16 *296:34 0.00272725
92 *99:44 *296:116 0.000189027
93 *100:16 *296:34 7.91253e-05
94 *121:24 *296:116 8.74768e-05
95 *122:20 *296:34 0.000201708
96 *122:20 *296:46 0.00011375
97 *126:28 *296:116 3.20057e-06
98 *170:26 *296:116 3.34071e-05
99 *170:55 *296:116 1.23748e-05
100 *206:43 *296:34 0.000248556
101 *225:14 *296:116 0
102 *228:10 *296:116 0.00114737
103 *229:22 *403:I 4.93756e-05
104 *229:22 *296:46 2.80106e-05
105 *240:23 *1445:RN 6.59611e-05
106 *241:111 *409:I 0.000418865
107 *241:119 *401:I 0.00019118
108 *241:119 *296:116 0.0021219
109 *243:21 *1445:RN 0.00273781
110 *243:21 *1456:RN 0.00024209
111 *263:10 *1426:RN 1.23654e-05
112 *263:10 *296:69 5.62204e-05
113 *265:38 *296:46 0.00309551
114 *272:109 *296:116 0.000217318
115 *276:203 *296:116 7.25771e-05
116 *276:216 *296:116 8.50669e-05
117 *276:220 *409:I 0
118 *280:48 *296:34 0.000934363
119 *281:29 *296:46 0
*RES
1 *1547:Z *296:10 13.16 
2 *296:10 *296:34 49.048 
3 *296:34 *296:46 22.908 
4 *296:46 *403:I 6.164 
5 *296:46 *296:61 17.008 
6 *296:61 *296:69 8.14 
7 *296:69 *1456:RN 9.728 
8 *296:69 *1445:RN 20.44 
9 *296:61 *1426:RN 5.332 
10 *296:10 *296:116 34.424 
11 *296:116 *296:118 4.5 
12 *296:118 *409:I 7.516 
13 *296:118 *445:I 4.5 
14 *296:116 *401:I 9.936 
*END

*D_NET *297 0.0174713
*CONN
*I *1598:I I *D gf180mcu_fd_sc_mcu7t5v0__buf_2
*I *1260:ZN O *D gf180mcu_fd_sc_mcu7t5v0__clkinv_1
*CAP
1 *1598:I 0
2 *1260:ZN 0.0018678
3 *297:26 0.0018678
4 *297:26 *1379:A1 0.000157533
5 *297:26 *1454:RN 0.000104036
6 *297:26 *304:14 8.03725e-05
7 dac_p[3] *297:26 0.000259344
8 *1260:I *297:26 3.82231e-05
9 *1269:I *297:26 2.70592e-05
10 *1304:A2 *297:26 0.000186352
11 *1336:A1 *297:26 1.97285e-06
12 *1348:A1 *297:26 1.02998e-05
13 *1357:A2 *297:26 0.000768207
14 *1367:A2 *297:26 0
15 *1373:A2 *297:26 2.60017e-05
16 *1426:CLK *297:26 0
17 *1450:D *297:26 1.02967e-05
18 *1487:I *297:26 0.000404614
19 *1564:I *297:26 0.000501518
20 *109:24 *297:26 0.000109456
21 *120:12 *297:26 1.78421e-06
22 *122:20 *297:26 0.00420646
23 *134:24 *297:26 1.2853e-05
24 *175:16 *297:26 3.8479e-05
25 *265:38 *297:26 0.00153667
26 *281:10 *297:26 0.00198555
27 *289:134 *297:26 0.000549659
28 *296:34 *297:26 0.00116622
29 *296:46 *297:26 0.00155277
*RES
1 *1260:ZN *297:26 48.604 
2 *297:26 *1598:I 4.5 
*END

*D_NET *298 0.0736026
*CONN
*I *1547:I I *D gf180mcu_fd_sc_mcu7t5v0__buf_1
*I *444:I I *D gf180mcu_fd_sc_mcu7t5v0__antenna
*I *406:I I *D gf180mcu_fd_sc_mcu7t5v0__antenna
*I *446:I I *D gf180mcu_fd_sc_mcu7t5v0__antenna
*I *1447:RN I *D gf180mcu_fd_sc_mcu7t5v0__dffrnq_1
*I *404:I I *D gf180mcu_fd_sc_mcu7t5v0__antenna
*I *1446:RN I *D gf180mcu_fd_sc_mcu7t5v0__dffrnq_1
*I *1548:Z O *D gf180mcu_fd_sc_mcu7t5v0__clkbuf_1
*CAP
1 *1547:I 0
2 *444:I 0.000688881
3 *406:I 0
4 *446:I 0
5 *1447:RN 0
6 *404:I 0.00268341
7 *1446:RN 6.2945e-05
8 *1548:Z 0
9 *298:106 0.00266184
10 *298:86 0.00958375
11 *298:76 0.00670828
12 *298:65 0.000932582
13 *298:26 0.00509556
14 *298:14 0.00698471
15 *298:4 0.00509283
16 *404:I *1314:A1 4.27515e-05
17 *404:I *1353:C 0.00204886
18 *404:I *332:8 0.000878325
19 *404:I *332:40 0.00115327
20 *1446:RN *312:29 2.3005e-05
21 *298:14 *342:30 0.000883345
22 *298:65 *1538:I 0.000507389
23 *298:65 *342:30 0.0004162
24 *298:106 *1333:B 9.20935e-05
25 *298:106 *1391:I1 4.54035e-05
26 *298:106 *1437:RN 3.4596e-05
27 *298:106 *1440:RN 0.000606525
28 *298:106 *1441:RN 0.000149316
29 *298:106 *1531:I 0
30 *298:106 *1557:I 0.000502227
31 *298:106 *1559:I 0.000613535
32 *298:106 *336:16 0.000285203
33 *298:106 *337:43 0.0010083
34 dac_n[6] *298:76 1.18566e-06
35 dac_n[7] *298:76 5.24396e-05
36 *353:I *404:I 0.000216144
37 *355:I *298:106 0.000129552
38 *358:I *298:106 1.91479e-06
39 *366:I *404:I 4.56261e-05
40 *405:I *404:I 0
41 *419:I *444:I 8.70988e-05
42 *424:I *404:I 1.16753e-05
43 *1290:A1 *298:14 0.00182802
44 *1306:A1 *404:I 2.77076e-05
45 *1313:A2 *404:I 0.000156144
46 *1316:A2 *404:I 0.00115728
47 *1335:A2 *298:106 3.57634e-06
48 *1350:B *1446:RN 0.000176437
49 *1355:A2 *444:I 0.000370775
50 *1357:B *298:26 0.00290373
51 *1373:B *298:14 0
52 *1374:B1 *298:14 0
53 *1381:A1 *298:65 4.04605e-05
54 *1381:A1 *298:76 6.72912e-05
55 *1385:I0 *404:I 0.000196009
56 *1387:I0 *404:I 0
57 *1396:A2 *298:76 7.38209e-05
58 *1422:D *298:106 5.5802e-05
59 *1425:D *298:106 0.00147369
60 *1435:D *404:I 0.000123915
61 *1441:D *298:106 2.7239e-05
62 *1442:D *298:106 9.05956e-05
63 *1442:CLK *298:106 7.60693e-05
64 *1443:D *298:106 0.000170848
65 *1458:D *298:76 4.58667e-05
66 *1490:I *298:106 8.13929e-05
67 *1567:I *298:14 0.000148864
68 *1567:I *298:65 0.00022261
69 *1567:I *298:76 0.000354442
70 *1571:I *298:14 0
71 *86:16 *298:76 0
72 *100:16 *298:76 8.10026e-05
73 *126:28 *298:86 0.000105995
74 *134:24 *404:I 0.000189208
75 *166:22 *298:26 0.000231883
76 *171:24 *298:26 0
77 *172:20 *444:I 7.17539e-05
78 *172:20 *298:106 0.000379251
79 *191:34 *298:86 0
80 *225:26 *298:86 0.00044569
81 *232:56 *404:I 0.000379567
82 *233:18 *298:14 0.00346284
83 *236:12 *298:86 7.97576e-05
84 *241:62 *404:I 0
85 *243:21 *404:I 0.000266789
86 *243:36 *404:I 3.2485e-05
87 *243:67 *298:106 0.000270686
88 *243:79 *298:106 0.000559739
89 *243:101 *298:106 0.00138567
90 *248:65 *298:14 0.00238506
91 *252:10 *404:I 0
92 *270:37 *298:106 2.78364e-05
93 *274:159 *298:106 0.000325466
94 *276:192 *298:106 0.00011257
95 *280:31 *298:14 0
96 *289:53 *404:I 0.000707233
97 *291:10 *404:I 0.000214563
98 *291:44 *404:I 0.00166257
99 *292:78 *404:I 9.69092e-06
100 *296:10 *298:76 1.19766e-05
101 *296:34 *298:65 0
*RES
1 *1548:Z *298:4 4.5 
2 *298:4 *298:14 41.136 
3 *298:14 *298:26 20.2899 
4 *298:26 *1446:RN 9.52 
5 *298:26 *404:I 35.936 
6 *298:14 *1447:RN 13.5 
7 *298:4 *298:65 4.784 
8 *298:65 *446:I 4.5 
9 *298:65 *298:76 8.868 
10 *298:76 *298:86 27.4869 
11 *298:86 *298:106 45.5489 
12 *298:106 *406:I 4.5 
13 *298:86 *444:I 17.9831 
14 *298:76 *1547:I 9 
*END

*D_NET *299 0.00474477
*CONN
*I *1449:RN I *D gf180mcu_fd_sc_mcu7t5v0__dffrnq_1
*I *1450:RN I *D gf180mcu_fd_sc_mcu7t5v0__dffrnq_1
*I *1451:RN I *D gf180mcu_fd_sc_mcu7t5v0__dffrnq_1
*I *1524:Z O *D gf180mcu_fd_sc_mcu7t5v0__dlyb_1
*CAP
1 *1449:RN 0.000457336
2 *1450:RN 7.90168e-05
3 *1451:RN 7.90168e-05
4 *1524:Z 0.000374376
5 *299:17 0.000822089
6 *299:8 0.000739128
7 *391:I *1449:RN 2.35449e-05
8 *1361:A1 *1449:RN 5.01895e-06
9 *1363:B *299:8 0.000143212
10 *1363:B *299:17 2.86067e-05
11 *1426:D *1449:RN 4.67771e-06
12 *1454:CLK *299:8 0.000383933
13 *1478:I *1449:RN 5.67861e-07
14 *1478:I *299:17 1.44223e-05
15 *1493:I *299:17 2.11015e-05
16 *1503:I *299:8 3.45625e-05
17 *1503:I *299:17 5.03829e-05
18 *245:31 *1449:RN 5.63044e-06
19 *246:14 *1449:RN 0.000615011
20 *246:14 *299:17 0.000854692
21 *272:31 *1449:RN 8.44565e-06
*RES
1 *1524:Z *299:8 7.62 
2 *299:8 *1451:RN 5.02 
3 *299:8 *299:17 3.016 
4 *299:17 *1450:RN 5.02 
5 *299:17 *1449:RN 7.516 
*END

*D_NET *300 0.00495433
*CONN
*I *1550:I I *D gf180mcu_fd_sc_mcu7t5v0__clkbuf_1
*I *1430:SETN I *D gf180mcu_fd_sc_mcu7t5v0__dffsnq_1
*I *1525:Z O *D gf180mcu_fd_sc_mcu7t5v0__dlyb_1
*CAP
1 *1550:I 0.00046524
2 *1430:SETN 0.000460751
3 *1525:Z 0
4 *300:4 0.000925991
5 *1430:SETN *302:10 0.000122179
6 *1430:SETN *312:29 0.000192882
7 *1550:I *302:10 0.000409924
8 *1337:A2 *1430:SETN 8.28588e-05
9 *1366:A2 *1430:SETN 0.000278381
10 *1521:I *1550:I 0.000187545
11 *96:12 *1550:I 0.00082903
12 *97:14 *1430:SETN 0.000154019
13 *108:43 *1430:SETN 0.000115388
14 *123:45 *1550:I 0.000711434
15 *290:188 *1430:SETN 9.35542e-06
16 *290:188 *1550:I 9.35542e-06
*RES
1 *1525:Z *300:4 4.5 
2 *300:4 *1430:SETN 17.66 
3 *300:4 *1550:I 10.636 
*END

*D_NET *301 0.00632264
*CONN
*I *1428:RN I *D gf180mcu_fd_sc_mcu7t5v0__dffrnq_1
*I *1427:SETN I *D gf180mcu_fd_sc_mcu7t5v0__dffsnq_1
*I *1549:Z O *D gf180mcu_fd_sc_mcu7t5v0__clkbuf_1
*CAP
1 *1428:RN 7.92371e-05
2 *1427:SETN 0.000195924
3 *1549:Z 0.000931625
4 *301:10 0.00120679
5 *1264:I *301:10 0.000312373
6 *1357:A2 *301:10 0.000111484
7 *1360:B *301:10 9.07847e-05
8 *1374:B1 *301:10 6.67724e-05
9 *94:37 *1427:SETN 2.77318e-05
10 *94:37 *1428:RN 6.41916e-06
11 *109:24 *301:10 0.00145855
12 *135:20 *301:10 0.000459942
13 *175:16 *301:10 9.67323e-06
14 *240:23 *1427:SETN 0.000704167
15 *240:23 *1428:RN 0.000242137
16 *244:39 *301:10 0.000419029
*RES
1 *1549:Z *301:10 22.548 
2 *301:10 *1427:SETN 6.476 
3 *301:10 *1428:RN 5.228 
*END

*D_NET *302 0.016569
*CONN
*I *1429:RN I *D gf180mcu_fd_sc_mcu7t5v0__dffrnq_2
*I *1523:I I *D gf180mcu_fd_sc_mcu7t5v0__dlyb_1
*I *1549:I I *D gf180mcu_fd_sc_mcu7t5v0__clkbuf_1
*I *1524:I I *D gf180mcu_fd_sc_mcu7t5v0__dlyb_1
*I *1550:Z O *D gf180mcu_fd_sc_mcu7t5v0__clkbuf_1
*CAP
1 *1429:RN 0.00023013
2 *1523:I 0
3 *1549:I 0.00035898
4 *1524:I 0
5 *1550:Z 0.000893054
6 *302:27 0.0011617
7 *302:18 0.00159283
8 *302:10 0.0019133
9 *302:10 *312:29 5.78216e-06
10 *302:10 *343:12 0.000769732
11 *1292:A2 *302:10 9.35542e-06
12 *1311:A1 *302:27 0.000341532
13 *1311:A2 *302:27 0
14 *1361:A2 *1549:I 5.44801e-05
15 *1366:A2 *302:10 0.000535807
16 *1366:A2 *302:18 0.00011012
17 *1373:A1 *1549:I 0.000644193
18 *1373:A1 *302:27 0.000284729
19 *1373:B *1549:I 2.46717e-05
20 *1374:B1 *1549:I 2.64063e-05
21 *1397:A1 *302:18 0.000878328
22 *1404:A2 *302:18 0.00033079
23 *1430:D *302:10 1.42315e-05
24 *1430:SETN *302:10 0.000122179
25 *1470:I *1549:I 5.08914e-05
26 *1470:I *302:27 1.19584e-05
27 *1509:I *1429:RN 0.000278756
28 *1509:I *302:10 0.000107648
29 *1509:I *302:18 0.000779133
30 *1550:I *302:10 0.000409924
31 *97:14 *302:10 0.000146714
32 *97:14 *302:18 0.0019557
33 *108:14 *302:27 0.000144086
34 *110:14 *302:27 6.75068e-05
35 *123:45 *302:10 0.000557671
36 *135:20 *1549:I 9.35542e-06
37 *175:16 *1549:I 0.000204659
38 *206:14 *302:27 2.72796e-06
39 *244:39 *1549:I 0.000971178
40 *289:99 *302:27 0.000136603
41 *290:151 *302:27 0
42 *292:47 *302:27 0.000317516
43 *293:12 *302:10 0.0001146
*RES
1 *1550:Z *302:10 17.944 
2 *302:10 *302:18 13.34 
3 *302:18 *1524:I 4.5 
4 *302:18 *302:27 6.24 
5 *302:27 *1549:I 18.076 
6 *302:27 *1523:I 4.5 
7 *302:10 *1429:RN 10.872 
*END

*D_NET *303 0.00287092
*CONN
*I *1552:I I *D gf180mcu_fd_sc_mcu7t5v0__clkbuf_1
*I *1457:SETN I *D gf180mcu_fd_sc_mcu7t5v0__dffsnq_1
*I *1526:Z O *D gf180mcu_fd_sc_mcu7t5v0__dlyb_1
*CAP
1 *1552:I 0.000115147
2 *1457:SETN 0.000343978
3 *1526:Z 0
4 *303:6 0.000459125
5 *1457:SETN *1460:RN 0
6 *1457:SETN *1526:I 0.000343368
7 *1552:I *1526:I 0.000594851
8 *1252:I *1457:SETN 0.00033257
9 *1252:I *1552:I 0.000636612
10 *1383:A2 *1552:I 8.44565e-06
11 *1597:I *1457:SETN 0
12 *1597:I *1552:I 1.40331e-05
13 *121:24 *1457:SETN 2.27877e-05
*RES
1 *1526:Z *303:6 9 
2 *303:6 *1457:SETN 11.704 
3 *303:6 *1552:I 11.08 
*END

*D_NET *304 0.00735517
*CONN
*I *1453:RN I *D gf180mcu_fd_sc_mcu7t5v0__dffrnq_1
*I *1452:RN I *D gf180mcu_fd_sc_mcu7t5v0__dffrnq_1
*I *1454:RN I *D gf180mcu_fd_sc_mcu7t5v0__dffrnq_1
*I *1551:Z O *D gf180mcu_fd_sc_mcu7t5v0__buf_1
*CAP
1 *1453:RN 0
2 *1452:RN 0
3 *1454:RN 0.000122707
4 *1551:Z 0.000822142
5 *304:14 0.000288256
6 *304:12 0.000987691
7 *1454:RN *1599:I 0.000278621
8 *304:12 *342:30 4.63351e-05
9 *1269:I *1454:RN 0.000494587
10 *1269:I *304:12 0.000256274
11 *1269:I *304:14 0.00110452
12 *1287:A1 *304:12 2.1584e-05
13 *1345:A1 *304:12 9.15818e-05
14 *1372:A2 *304:12 0.00135837
15 *1548:I *304:12 4.36433e-05
16 *1564:I *1454:RN 5.02242e-05
17 *1564:I *304:12 4.77699e-05
18 *1564:I *304:14 0.000189406
19 *1571:I *304:12 0
20 *120:12 *1454:RN 0.000698638
21 *280:48 *304:12 6.64107e-06
22 *280:72 *304:12 0.00026177
23 *297:26 *1454:RN 0.000104036
24 *297:26 *304:14 8.03725e-05
*RES
1 *1551:Z *304:12 20.572 
2 *304:12 *304:14 3.016 
3 *304:14 *1454:RN 25.62 
4 *304:14 *1452:RN 4.5 
5 *304:12 *1453:RN 4.5 
*END

*D_NET *305 0.0119709
*CONN
*I *1461:RN I *D gf180mcu_fd_sc_mcu7t5v0__dffrnq_1
*I *1455:RN I *D gf180mcu_fd_sc_mcu7t5v0__dffrnq_1
*I *1551:I I *D gf180mcu_fd_sc_mcu7t5v0__buf_1
*I *1552:Z O *D gf180mcu_fd_sc_mcu7t5v0__clkbuf_1
*CAP
1 *1461:RN 0.000688117
2 *1455:RN 0
3 *1551:I 0.000111819
4 *1552:Z 0.000712946
5 *305:12 0.000671497
6 *305:8 0.00196074
7 *305:12 *1288:B 0
8 *305:12 *1465:D 2.4769e-05
9 *448:I *305:8 0
10 *1256:I *1551:I 0.000693953
11 *1256:I *305:12 0.000143295
12 *1280:A1 *1461:RN 8.02966e-05
13 *1372:A2 *1551:I 0.000352357
14 *1381:A1 *1461:RN 2.22313e-05
15 *1383:A1 *305:8 8.84906e-05
16 *1383:A1 *305:12 4.64756e-05
17 *1383:A2 *305:8 3.13487e-05
18 *1384:B *305:8 0.000245369
19 *1460:D *305:8 0.00106723
20 *1461:D *305:12 0.000971425
21 *1464:CLK *305:8 0.00141153
22 *1464:CLK *305:12 4.45218e-05
23 *1548:I *1551:I 0.000131739
24 *1571:I *1461:RN 0.000737116
25 *1571:I *305:8 0
26 *1597:I *305:8 9.27762e-05
27 *104:12 *305:12 2.11222e-05
28 *121:24 *305:8 0
29 *223:12 *305:12 4.6157e-05
30 *223:36 *1551:I 0.000702521
31 *223:36 *305:12 0.000871086
*RES
1 *1552:Z *305:8 11.988 
2 *305:8 *305:12 6.24 
3 *305:12 *1551:I 16.412 
4 *305:12 *1455:RN 4.5 
5 *305:8 *1461:RN 17.764 
*END

*D_NET *306 0.00655383
*CONN
*I *1553:I I *D gf180mcu_fd_sc_mcu7t5v0__clkbuf_1
*I *1464:RN I *D gf180mcu_fd_sc_mcu7t5v0__dffrnq_1
*I *1465:RN I *D gf180mcu_fd_sc_mcu7t5v0__dffrnq_1
*I *1527:Z O *D gf180mcu_fd_sc_mcu7t5v0__dlyb_1
*CAP
1 *1553:I 0.000761931
2 *1464:RN 6.13973e-05
3 *1465:RN 0.00112219
4 *1527:Z 7.28656e-05
5 *306:8 0.00143464
6 *306:6 0.00108585
7 *1465:RN *1293:A2 0
8 *1553:I *1528:I 1.36673e-05
9 *1553:I *1554:I 0
10 *1553:I *307:18 0.000122244
11 *1281:A1 *1465:RN 1.51918e-05
12 *1299:A2 *1465:RN 2.2879e-05
13 *1382:A1 *1465:RN 3.61446e-05
14 *1382:A1 *1553:I 0
15 *1462:D *1464:RN 0.000472877
16 *1462:D *1465:RN 0
17 *1462:D *1553:I 6.50309e-05
18 *1462:D *306:8 3.33862e-05
19 *1464:D *1464:RN 0.00046112
20 *1471:I *1465:RN 6.57403e-05
21 *1484:I *1465:RN 3.73934e-05
22 *1542:I *1465:RN 7.5959e-06
23 *100:31 *1465:RN 2.82354e-05
24 *100:54 *1465:RN 0.000182021
25 *100:54 *1553:I 0
26 *100:54 *306:8 8.94086e-06
27 *111:28 *1553:I 7.38674e-05
28 *116:20 *1465:RN 9.68288e-05
29 *116:20 *306:8 4.46736e-05
30 *124:16 *1465:RN 0.000176846
31 *126:14 *1465:RN 2.84053e-05
32 *288:20 *1465:RN 1.05545e-05
33 *288:76 *1465:RN 1.13128e-05
*RES
1 *1527:Z *306:6 5.02 
2 *306:6 *306:8 1.56 
3 *306:8 *1465:RN 12.404 
4 *306:8 *1464:RN 14.852 
5 *306:6 *1553:I 9.596 
*END

*D_NET *307 0.00927228
*CONN
*I *1458:RN I *D gf180mcu_fd_sc_mcu7t5v0__dffrnq_1
*I *1460:RN I *D gf180mcu_fd_sc_mcu7t5v0__dffrnq_1
*I *1553:Z O *D gf180mcu_fd_sc_mcu7t5v0__clkbuf_1
*CAP
1 *1458:RN 0.000202195
2 *1460:RN 0.000772826
3 *1553:Z 0.00139925
4 *307:18 0.00237427
5 *1460:RN *1526:I 1.73926e-05
6 cmp_clk *307:18 0
7 cmp_rst *307:18 0.00119645
8 dac_n[9] *1458:RN 0.000328477
9 dac_n[9] *1460:RN 5.29249e-05
10 dac_n[9] *307:18 1.07369e-05
11 *1381:A1 *1460:RN 0.000147402
12 *1382:A1 *307:18 8.21146e-06
13 *1382:A2 *1460:RN 0.000718542
14 *1382:A2 *307:18 0
15 *1457:D *1458:RN 0.000230946
16 *1457:D *1460:RN 0.000692314
17 *1457:SETN *1460:RN 0
18 *1553:I *307:18 0.000122244
19 *1569:I *307:18 0.000228223
20 *1570:I *1460:RN 0.000450565
21 *4:30 *1458:RN 1.84169e-05
22 *4:30 *307:18 1.1472e-05
23 *100:16 *1460:RN 1.73223e-05
24 *296:34 *1460:RN 0.000272089
*RES
1 *1553:Z *307:18 28.192 
2 *307:18 *1460:RN 17.528 
3 *307:18 *1458:RN 10.664 
*END

*D_NET *308 0.01951
*CONN
*I *1599:I I *D gf180mcu_fd_sc_mcu7t5v0__buf_2
*I *1261:ZN O *D gf180mcu_fd_sc_mcu7t5v0__clkinv_1
*CAP
1 *1599:I 0.000631134
2 *1261:ZN 0.00583899
3 *308:18 0.00647012
4 *1357:B *308:18 0.000291001
5 *1374:A1 *1599:I 5.98112e-05
6 *1398:I1 *308:18 0.000265668
7 *1400:A1 *308:18 7.46667e-06
8 *1427:D *308:18 0.000466372
9 *1428:D *308:18 0.000410339
10 *1454:RN *1599:I 0.000278621
11 *47:20 *1599:I 0.000173488
12 *109:24 *308:18 6.48698e-05
13 *120:12 *1599:I 0.000275841
14 *177:22 *308:18 0.00179736
15 *239:12 *308:18 2.13246e-06
16 *239:41 *308:18 0.000174431
17 *243:21 *308:18 6.86302e-05
18 *248:16 *1599:I 0.000935579
19 *276:46 *308:18 1.20105e-05
20 *292:16 *308:18 0.000210849
21 *292:41 *308:18 0.0010753
*RES
1 *1261:ZN *308:18 45.3168 
2 *308:18 *1599:I 21.0437 
*END

*D_NET *309 0.0119232
*CONN
*I *1554:I I *D gf180mcu_fd_sc_mcu7t5v0__clkbuf_1
*I *1527:I I *D gf180mcu_fd_sc_mcu7t5v0__dlyb_1
*I *1526:I I *D gf180mcu_fd_sc_mcu7t5v0__dlyb_1
*I *1528:Z O *D gf180mcu_fd_sc_mcu7t5v0__dlyb_1
*CAP
1 *1554:I 0.000619729
2 *1527:I 9.53192e-05
3 *1526:I 0.000611641
4 *1528:Z 0
5 *309:23 0.00102472
6 *309:6 0.000921314
7 *1527:I *1601:I 6.05782e-05
8 *1527:I *311:6 1.321e-05
9 *1554:I *310:16 9.85513e-06
10 *309:23 *1528:I 3.08891e-05
11 *1252:I *1526:I 0.000508627
12 *1252:I *309:23 0.00110975
13 *1275:A1 *1527:I 0.000193584
14 *1275:A1 *1554:I 0.000536128
15 *1275:A2 *1527:I 0.000328242
16 *1275:A2 *1554:I 0.00043234
17 *1276:A1 *1554:I 0.00118772
18 *1299:A2 *1527:I 0.000111075
19 *1381:A2 *1526:I 8.05215e-05
20 *1457:SETN *1526:I 0.000343368
21 *1460:RN *1526:I 1.73926e-05
22 *1552:I *1526:I 0.000594851
23 *1553:I *1554:I 0
24 *98:12 *1554:I 0.00014262
25 *100:54 *1527:I 0.000246509
26 *111:8 *1554:I 0.00145601
27 *111:12 *1554:I 0.000737647
28 *111:28 *1526:I 3.43641e-05
29 *111:28 *309:23 0.000261727
30 *120:81 *1554:I 0.000135567
31 *121:24 *1526:I 7.78636e-05
*RES
1 *1528:Z *309:6 9 
2 *309:6 *1526:I 15.552 
3 *309:6 *309:23 7.724 
4 *309:23 *1527:I 6.06 
5 *309:23 *1554:I 22.236 
*END

*D_NET *310 0.0105909
*CONN
*I *1466:RN I *D gf180mcu_fd_sc_mcu7t5v0__dffrnq_1
*I *1462:RN I *D gf180mcu_fd_sc_mcu7t5v0__dffrnq_1
*I *1554:Z O *D gf180mcu_fd_sc_mcu7t5v0__clkbuf_1
*CAP
1 *1466:RN 0.000381325
2 *1462:RN 0.000552259
3 *1554:Z 0.00183569
4 *310:16 0.00276927
5 *350:I *1466:RN 0.00122711
6 *377:I *310:16 1.44352e-05
7 *381:I *310:16 0.000105621
8 *415:I *310:16 6.88149e-05
9 *1279:A1 *310:16 0.000112089
10 *1298:A3 *310:16 0.000391862
11 *1301:A2 *310:16 0.000251051
12 *1346:A1 *310:16 9.76253e-05
13 *1346:A2 *310:16 0.000104217
14 *1349:A1 *1462:RN 5.734e-05
15 *1349:A1 *310:16 4.15523e-05
16 *1369:A2 *1462:RN 0
17 *1415:A2 *310:16 0.000214643
18 *1431:D *310:16 0.000322394
19 *1431:CLK *310:16 5.36991e-05
20 *1432:D *310:16 0.000337163
21 *1466:D *1462:RN 2.36218e-05
22 *1466:D *310:16 6.02748e-05
23 *1554:I *310:16 9.85513e-06
24 *121:24 *310:16 5.29106e-05
25 *123:45 *1462:RN 5.43303e-05
26 *168:10 *310:16 4.55764e-06
27 *198:26 *1462:RN 0.000268946
28 *248:65 *1462:RN 0.00080165
29 *248:65 *1466:RN 5.44144e-05
30 *271:8 *310:16 7.63268e-05
31 *272:117 *310:16 0.000184745
32 *272:125 *310:16 6.10811e-05
*RES
1 *1554:Z *310:16 18.644 
2 *310:16 *1462:RN 17.972 
3 *310:16 *1466:RN 16.932 
*END

*D_NET *311 0.0132947
*CONN
*I *1528:I I *D gf180mcu_fd_sc_mcu7t5v0__dlyb_1
*I *1601:I I *D gf180mcu_fd_sc_mcu7t5v0__buf_1
*I *1529:Z O *D gf180mcu_fd_sc_mcu7t5v0__dlyb_1
*CAP
1 *1528:I 0.000172112
2 *1601:I 0.0015224
3 *1529:Z 3.47513e-05
4 *311:6 0.00172926
5 *1601:I *1375:A1 0.000544156
6 *1601:I *1516:I 3.76797e-05
7 *1601:I *344:27 5.36914e-05
8 *380:I *1601:I 1.09471e-05
9 *1252:I *1528:I 4.37955e-06
10 *1273:A1 *1601:I 2.91365e-05
11 *1275:A1 *1528:I 0.0001105
12 *1275:A1 *311:6 0.000194522
13 *1275:A2 *1528:I 9.35542e-06
14 *1278:A1 *1601:I 0.00070975
15 *1283:A1 *1601:I 8.92511e-05
16 *1296:A3 *1601:I 6.04406e-05
17 *1299:A2 *1601:I 0.000462041
18 *1375:A2 *1601:I 0.00109041
19 *1375:A3 *1601:I 3.22108e-05
20 *1377:A2 *1601:I 0.000889008
21 *1407:C *1601:I 0
22 *1415:A1 *1601:I 0.000689101
23 *1460:CLK *1601:I 0.000112739
24 *1466:CLK *1601:I 0.00166443
25 *1527:I *1601:I 6.05782e-05
26 *1527:I *311:6 1.321e-05
27 *1553:I *1528:I 1.36673e-05
28 *4:30 *1601:I 0.000203281
29 *4:30 *311:6 9.75546e-05
30 *44:10 *1601:I 7.41904e-06
31 *100:58 *1528:I 0.000247666
32 *111:28 *1528:I 0.000139431
33 *121:24 *1528:I 3.1035e-05
34 *170:26 *1601:I 8.44565e-06
35 *208:397 *1601:I 0.000284834
36 *231:16 *1601:I 0.000463772
37 *239:47 *1601:I 0.00126449
38 *296:116 *1601:I 0.000176112
39 *309:23 *1528:I 3.08891e-05
*RES
1 *1529:Z *311:6 5.228 
2 *311:6 *1601:I 42.572 
3 *311:6 *1528:I 15.164 
*END

*D_NET *312 0.0222875
*CONN
*I *1459:SETN I *D gf180mcu_fd_sc_mcu7t5v0__dffsnq_1
*I *1467:RN I *D gf180mcu_fd_sc_mcu7t5v0__dffrnq_1
*I *1525:I I *D gf180mcu_fd_sc_mcu7t5v0__dlyb_1
*I *1601:Z O *D gf180mcu_fd_sc_mcu7t5v0__buf_1
*CAP
1 *1459:SETN 0.000539004
2 *1467:RN 0.000424094
3 *1525:I 0.000109469
4 *1601:Z 0.00180588
5 *312:29 0.00299512
6 *312:14 0.00394737
7 *1467:RN *1308:B 2.71701e-05
8 *1467:RN *1350:C 3.22108e-05
9 *1467:RN *328:16 2.04597e-06
10 *312:14 *1331:A1 1.03283e-05
11 *312:14 *1514:I 3.58909e-05
12 *1305:A2 *312:14 4.64235e-05
13 *1337:A1 *312:14 4.67771e-06
14 *1337:A2 *312:14 1.5994e-05
15 *1349:A1 *312:29 0.000263467
16 *1350:B *1467:RN 2.50972e-05
17 *1350:B *312:29 5.27707e-05
18 *1371:A1 *312:14 0.000997485
19 *1375:A3 *312:14 0.00019092
20 *1399:A2 *312:29 0.000273605
21 *1400:A3 *312:29 0
22 *1427:D *1459:SETN 0.000248378
23 *1430:SETN *312:29 0.000192882
24 *1430:CLK *1525:I 5.13239e-06
25 *1436:D *1459:SETN 2.46957e-05
26 *1445:D *1459:SETN 0.000244007
27 *1446:RN *312:29 2.3005e-05
28 *1477:I *312:29 0.000208007
29 *1494:I *1467:RN 0
30 *1502:I *312:14 4.35979e-06
31 *1519:I *312:29 0.000254815
32 *1537:I *1459:SETN 0.00189422
33 *1562:I *312:14 0.000122332
34 *108:27 *1525:I 0.000981696
35 *108:27 *312:14 0.000638941
36 *108:43 *312:14 2.37622e-05
37 *159:41 *312:14 0
38 *159:43 *312:14 2.24654e-05
39 *170:26 *312:14 6.77605e-06
40 *172:20 *1525:I 0.000981696
41 *172:20 *312:14 0.00120245
42 *208:85 *312:29 0.000190226
43 *208:87 *312:29 4.00191e-05
44 *208:123 *312:29 0
45 *229:72 *312:14 0.000607771
46 *229:83 *312:14 3.22108e-05
47 *240:12 *312:29 0.00015629
48 *241:62 *1459:SETN 0.000615973
49 *274:66 *312:14 3.57634e-06
50 *274:81 *312:14 8.44565e-06
51 *276:8 *312:14 2.04597e-06
52 *290:188 *312:29 0.00158355
53 *291:18 *312:29 0.000162958
54 *291:79 *312:29 0
55 *302:10 *312:29 5.78216e-06
*RES
1 *1601:Z *312:14 24.184 
2 *312:14 *1525:I 11.912 
3 *312:14 *312:29 21.036 
4 *312:29 *1467:RN 6.684 
5 *312:29 *1459:SETN 20.572 
*END

*D_NET *313 0.00538963
*CONN
*I *1420:RN I *D gf180mcu_fd_sc_mcu7t5v0__dffrnq_1
*I *1556:I I *D gf180mcu_fd_sc_mcu7t5v0__clkbuf_1
*I *1530:Z O *D gf180mcu_fd_sc_mcu7t5v0__dlyb_1
*CAP
1 *1420:RN 0.000678989
2 *1556:I 0.000600251
3 *1530:Z 0
4 *313:4 0.00127924
5 *1420:RN *1419:RN 0.000142574
6 dout[4] *1420:RN 5.857e-05
7 *366:I *1420:RN 0
8 *366:I *1556:I 0.000103117
9 *396:I *1420:RN 0.000381798
10 *396:I *1556:I 0.00105551
11 *1389:I0 *1420:RN 0.000104048
12 *252:10 *1556:I 0.00033778
13 *254:12 *1420:RN 7.16013e-05
14 *254:12 *1556:I 5.9396e-05
15 *255:10 *1420:RN 1.77183e-05
16 *289:53 *1556:I 0.000499043
*RES
1 *1530:Z *313:4 4.5 
2 *313:4 *1556:I 11.468 
3 *313:4 *1420:RN 10.636 
*END

*D_NET *314 0.00994237
*CONN
*I *1416:RN I *D gf180mcu_fd_sc_mcu7t5v0__dffrnq_1
*I *1417:RN I *D gf180mcu_fd_sc_mcu7t5v0__dffrnq_1
*I *1435:RN I *D gf180mcu_fd_sc_mcu7t5v0__dffrnq_1
*I *1555:Z O *D gf180mcu_fd_sc_mcu7t5v0__clkbuf_2
*CAP
1 *1416:RN 6.06099e-05
2 *1417:RN 0
3 *1435:RN 0.00053947
4 *1555:Z 0.000119542
5 *314:16 0.0011417
6 *314:6 0.00078238
7 *1435:RN *1313:A1 0.000839313
8 *1435:RN *1313:B 0.000406201
9 *1435:RN *1385:I1 0.000453316
10 *1435:RN *328:60 0.00026679
11 *1435:RN *330:30 0.000224875
12 *314:16 *1314:A1 0.000126819
13 *314:16 *1385:I1 0.000277829
14 dout[1] *314:6 3.09205e-05
15 dout[1] *314:16 1.19663e-05
16 *405:I *314:16 0
17 *1385:I0 *314:6 0
18 *1386:I0 *314:16 0.000577255
19 *1581:I *314:6 0
20 *1582:I *314:16 0.000220486
21 *143:14 *1435:RN 0.00057304
22 *191:20 *314:16 1.30498e-05
23 *269:65 *314:16 8.01745e-05
24 *285:51 *1435:RN 0.00249243
25 *285:51 *314:6 0.000541508
26 *285:51 *314:16 0.000162693
*RES
1 *1555:Z *314:6 6.06 
2 *314:6 *314:16 14.512 
3 *314:16 *1435:RN 23.276 
4 *314:16 *1417:RN 4.5 
5 *314:6 *1416:RN 5.02 
*END

*D_NET *315 0.00463441
*CONN
*I *1419:RN I *D gf180mcu_fd_sc_mcu7t5v0__dffrnq_1
*I *1418:RN I *D gf180mcu_fd_sc_mcu7t5v0__dffrnq_1
*I *1555:I I *D gf180mcu_fd_sc_mcu7t5v0__clkbuf_2
*I *1556:Z O *D gf180mcu_fd_sc_mcu7t5v0__clkbuf_1
*CAP
1 *1419:RN 0.000474981
2 *1418:RN 0
3 *1555:I 0.000286128
4 *1556:Z 0
5 *315:19 0.000748661
6 *315:4 0.000559809
7 dout[2] *1419:RN 0.000113016
8 dout[2] *1555:I 5.18149e-05
9 dout[2] *315:19 0.000135435
10 dout[3] *1419:RN 0.000766163
11 *396:I *1419:RN 0.000272968
12 *396:I *315:19 0.000456578
13 *1389:I0 *1419:RN 2.00197e-05
14 *1420:RN *1419:RN 0.000142574
15 *285:51 *1555:I 0
16 *289:53 *1555:I 3.55967e-05
17 *289:53 *315:19 0.000570671
*RES
1 *1556:Z *315:4 4.5 
2 *315:4 *1555:I 6.684 
3 *315:4 *315:19 3.536 
4 *315:19 *1418:RN 4.5 
5 *315:19 *1419:RN 10.428 
*END

*D_NET *316 0.00654361
*CONN
*I *1557:I I *D gf180mcu_fd_sc_mcu7t5v0__buf_1
*I *1441:RN I *D gf180mcu_fd_sc_mcu7t5v0__dffrnq_1
*I *1531:Z O *D gf180mcu_fd_sc_mcu7t5v0__dlyb_1
*CAP
1 *1557:I 0.000720716
2 *1441:RN 0.000313579
3 *1531:Z 0
4 *316:6 0.0010343
5 *1441:RN *1323:A1 1.23022e-05
6 *1441:RN *1531:I 0.000557649
7 *1557:I *1440:RN 7.42486e-05
8 *1557:I *1559:I 0.00155705
9 dout[4] *1557:I 6.40685e-06
10 *450:I *1557:I 0.00137681
11 *1390:S *1557:I 3.01822e-05
12 *1441:D *1441:RN 3.82619e-05
13 *1441:D *1557:I 5.75518e-05
14 *256:10 *1557:I 0
15 *285:27 *1557:I 0.000113016
16 *298:106 *1441:RN 0.000149316
17 *298:106 *1557:I 0.000502227
*RES
1 *1531:Z *316:6 9 
2 *316:6 *1441:RN 11.704 
3 *316:6 *1557:I 18.152 
*END

*D_NET *317 0.00510632
*CONN
*I *1439:RN I *D gf180mcu_fd_sc_mcu7t5v0__dffrnq_1
*I *1438:RN I *D gf180mcu_fd_sc_mcu7t5v0__dffrnq_1
*I *1440:RN I *D gf180mcu_fd_sc_mcu7t5v0__dffrnq_1
*I *1557:Z O *D gf180mcu_fd_sc_mcu7t5v0__buf_1
*CAP
1 *1439:RN 0
2 *1438:RN 0.00039255
3 *1440:RN 0.000897417
4 *1557:Z 0.000587514
5 *317:24 0.000702453
6 *1438:RN *334:24 4.31743e-05
7 *1440:RN *1559:I 0.000364024
8 *1440:RN *335:12 0
9 *317:24 *335:12 0
10 dout[4] *1440:RN 0.000102348
11 *355:I *1440:RN 5.91958e-05
12 *355:I *317:24 1.78817e-06
13 *1419:D *1438:RN 2.08074e-05
14 *1420:D *1438:RN 5.93021e-05
15 *1420:D *317:24 4.008e-05
16 *1557:I *1440:RN 7.42486e-05
17 *191:20 *1438:RN 0.000727765
18 *191:20 *1440:RN 4.02644e-05
19 *191:20 *317:24 0.000366937
20 *285:33 *1440:RN 1.99235e-05
21 *298:106 *1440:RN 0.000606525
*RES
1 *1557:Z *1440:RN 23.616 
2 *1440:RN *317:24 7.308 
3 *317:24 *1438:RN 17.244 
4 *317:24 *1439:RN 4.5 
*END

*D_NET *318 0.0145523
*CONN
*I *1530:I I *D gf180mcu_fd_sc_mcu7t5v0__dlyb_1
*I *1558:I I *D gf180mcu_fd_sc_mcu7t5v0__buf_1
*I *1532:Z O *D gf180mcu_fd_sc_mcu7t5v0__dlyb_1
*CAP
1 *1530:I 0.00129239
2 *1558:I 0.000344858
3 *1532:Z 0.000575739
4 *318:10 0.00221299
5 *1558:I *1334:A1 6.04206e-05
6 *1558:I *1531:I 0.00046192
7 *1558:I *322:16 0.000886647
8 *318:10 *1323:A1 1.05862e-05
9 *318:10 *1531:I 4.30172e-05
10 dout[3] *1530:I 0.000280035
11 dout[4] *1530:I 2.53026e-05
12 dout[5] *1530:I 9.36651e-05
13 *355:I *1558:I 3.75797e-05
14 *441:I *1530:I 0.000151565
15 *1389:I0 *1530:I 0.00121263
16 *1391:I0 *318:10 0.000478931
17 *1422:D *1530:I 2.36492e-05
18 *1422:D *1558:I 0.00029082
19 *1422:D *318:10 0.000204606
20 *1441:CLK *1558:I 0.000325088
21 *1473:I *1530:I 2.02553e-05
22 *1513:I *1530:I 0.000215267
23 *1586:I *1530:I 0.000125278
24 *232:16 *1530:I 0.00311436
25 *232:18 *1530:I 0.000664711
26 *274:155 *1530:I 0
27 *274:183 *1530:I 4.36473e-05
28 *283:8 *1530:I 0.000699315
29 *284:12 *1530:I 0.000147098
30 *284:12 *318:10 0.000249673
31 *285:51 *1530:I 0.000260296
*RES
1 *1532:Z *318:10 13.368 
2 *318:10 *1558:I 13.784 
3 *318:10 *1530:I 25.64 
*END

*D_NET *319 0.0183831
*CONN
*I *1600:I I *D gf180mcu_fd_sc_mcu7t5v0__buf_2
*I *1262:ZN O *D gf180mcu_fd_sc_mcu7t5v0__clkinv_1
*CAP
1 *1600:I 0
2 *1262:ZN 0.00214052
3 *319:16 0.00214052
4 dac_n[2] *319:16 1.09921e-05
5 dac_p[6] *319:16 0.000123099
6 samp_bot *319:16 2.64624e-05
7 *1357:B *319:16 0
8 *1364:A1 *319:16 3.22441e-06
9 *1367:A1 *319:16 0.000116384
10 *47:20 *319:16 0.00864878
11 *236:12 *319:16 0.00517307
*RES
1 *1262:ZN *319:16 45.56 
2 *319:16 *1600:I 9 
*END

*D_NET *320 0.0199323
*CONN
*I *1436:RN I *D gf180mcu_fd_sc_mcu7t5v0__dffrnq_1
*I *1437:RN I *D gf180mcu_fd_sc_mcu7t5v0__dffrnq_1
*I *1531:I I *D gf180mcu_fd_sc_mcu7t5v0__dlyb_1
*I *1558:Z O *D gf180mcu_fd_sc_mcu7t5v0__buf_1
*CAP
1 *1436:RN 0.000945913
2 *1437:RN 0.00234632
3 *1531:I 0.00280919
4 *1558:Z 0.00140878
5 *1436:RN *328:43 7.93334e-05
6 *1437:RN *1322:B 4.54208e-05
7 *1437:RN *1330:B 4.73731e-05
8 *1437:RN *335:31 0.000252982
9 *1437:RN *335:49 0.000805616
10 *1437:RN *336:16 6.65041e-05
11 *1531:I *1323:A1 0
12 *1531:I *1334:A1 1.17668e-05
13 *1531:I *1391:I1 1.61065e-05
14 *1531:I *1532:I 2.74483e-05
15 *1531:I *322:16 0.000533539
16 *1531:I *336:16 2.11346e-05
17 *353:I *1436:RN 0
18 *1306:A1 *1436:RN 0.00047924
19 *1318:A2 *1437:RN 0.000569211
20 *1320:A2 *1437:RN 0
21 *1322:A2 *1437:RN 3.57634e-06
22 *1335:A1 *1531:I 0.000114669
23 *1335:A2 *1531:I 5.97583e-05
24 *1335:B *1531:I 0.00134611
25 *1359:A1 *1437:RN 0.000779716
26 *1359:B *1437:RN 0.000323256
27 *1362:A2 *1437:RN 3.39125e-06
28 *1391:I0 *1531:I 0.000794503
29 *1391:S *1531:I 0.000103788
30 *1422:D *1531:I 8.43164e-06
31 *1437:D *1436:RN 2.56656e-05
32 *1438:D *1437:RN 7.54457e-05
33 *1438:CLK *1437:RN 0.000249521
34 *1440:CLK *1437:RN 0.000409221
35 *1441:RN *1531:I 0.000557649
36 *1468:I *1436:RN 0.000249441
37 *1481:I *1437:RN 0
38 *1482:I *1437:RN 1.19663e-05
39 *1558:I *1531:I 0.00046192
40 *1592:I *1436:RN 0.000263725
41 *132:14 *1437:RN 7.37187e-05
42 *132:16 *1437:RN 0.000230185
43 *144:25 *1437:RN 0.000279015
44 *208:131 *1437:RN 4.13954e-05
45 *208:251 *1531:I 0.000179812
46 *220:6 *1436:RN 0.000101448
47 *220:6 *1437:RN 0.000559573
48 *220:17 *1436:RN 1.41447e-05
49 *221:13 *1437:RN 0.000170254
50 *241:62 *1436:RN 0.00188446
51 *267:18 *1437:RN 0
52 *274:155 *1531:I 1.30439e-05
53 *298:106 *1437:RN 3.4596e-05
54 *298:106 *1531:I 0
55 *318:10 *1531:I 4.30172e-05
*RES
1 *1558:Z *1531:I 31.52 
2 *1531:I *1437:RN 24.184 
3 *1437:RN *1436:RN 26.216 
*END

*D_NET *321 0.00506447
*CONN
*I *1560:I I *D gf180mcu_fd_sc_mcu7t5v0__clkbuf_1
*I *1423:RN I *D gf180mcu_fd_sc_mcu7t5v0__dffrnq_1
*I *1533:Z O *D gf180mcu_fd_sc_mcu7t5v0__dlyb_1
*CAP
1 *1560:I 0.000606093
2 *1423:RN 0.000387595
3 *1533:Z 0
4 *321:4 0.000993688
5 *1423:RN *323:16 0.00105171
6 *1423:RN *326:23 0.000186065
7 *1423:RN *326:27 0.000913523
8 *1560:I *1534:I 1.18566e-06
9 dout[7] *1423:RN 0.000122244
10 dout[7] *1560:I 0.000113016
11 *1393:I0 *1423:RN 5.54189e-06
12 *1393:I0 *1560:I 0.000105232
13 *1393:S *1560:I 0.000471431
14 *1424:D *1560:I 0
15 *1587:I *1423:RN 1.56624e-05
16 *1588:I *1423:RN 8.57188e-05
17 *1588:I *1560:I 5.77431e-06
*RES
1 *1533:Z *321:4 4.5 
2 *321:4 *1423:RN 18.804 
3 *321:4 *1560:I 18.076 
*END

*D_NET *322 0.00958168
*CONN
*I *1442:RN I *D gf180mcu_fd_sc_mcu7t5v0__dffrnq_1
*I *1443:RN I *D gf180mcu_fd_sc_mcu7t5v0__dffrnq_1
*I *1444:RN I *D gf180mcu_fd_sc_mcu7t5v0__dffrnq_1
*I *1559:Z O *D gf180mcu_fd_sc_mcu7t5v0__buf_2
*CAP
1 *1442:RN 0.000289612
2 *1443:RN 0
3 *1444:RN 0.000355297
4 *1559:Z 0.000735393
5 *322:18 0.000429848
6 *322:16 0.00109956
7 *1444:RN *1514:I 0.000835055
8 *1444:RN *338:28 0.000141716
9 *322:16 *1334:A1 1.35522e-05
10 *322:16 *1514:I 0.000198868
11 *322:16 *338:28 6.64107e-06
12 *322:18 *1514:I 0.000378868
13 *322:18 *338:28 8.37152e-05
14 *393:I *1442:RN 1.60338e-05
15 *1324:B *1442:RN 3.21523e-05
16 *1324:B *322:16 0.000831986
17 *1421:D *322:16 4.01681e-05
18 *1421:CLK *322:16 0.000164875
19 *1422:CLK *322:16 0.000671923
20 *1425:D *322:16 5.92453e-06
21 *1441:CLK *322:16 4.51672e-06
22 *1442:D *1444:RN 8.32653e-06
23 *1531:I *322:16 0.000533539
24 *1558:I *322:16 0.000886647
25 *146:30 *1444:RN 1.60681e-05
26 *191:20 *322:16 0.00046222
27 *212:13 *1442:RN 0.000394532
28 *212:13 *322:16 0.000226004
29 *212:28 *1442:RN 0.000676838
30 *241:111 *1442:RN 4.18042e-05
*RES
1 *1559:Z *322:16 18.256 
2 *322:16 *322:18 1.144 
3 *322:18 *1444:RN 12.12 
4 *322:18 *1443:RN 9 
5 *322:16 *1442:RN 12.016 
*END

*D_NET *323 0.013627
*CONN
*I *1422:RN I *D gf180mcu_fd_sc_mcu7t5v0__dffrnq_1
*I *1421:RN I *D gf180mcu_fd_sc_mcu7t5v0__dffrnq_1
*I *1559:I I *D gf180mcu_fd_sc_mcu7t5v0__buf_2
*I *1560:Z O *D gf180mcu_fd_sc_mcu7t5v0__clkbuf_1
*CAP
1 *1422:RN 0
2 *1421:RN 0
3 *1559:I 0.000444987
4 *1560:Z 0.00143163
5 *323:18 0.000694412
6 *323:16 0.00168106
7 *323:16 *1334:A1 2.42266e-05
8 *323:16 *1532:I 0.000559438
9 *323:16 *1533:I 3.4596e-05
10 *323:16 *326:27 0.000451608
11 *323:18 *1334:A1 1.29379e-05
12 dout[5] *1559:I 0.000669672
13 dout[5] *323:18 0.000256653
14 *440:I *323:16 0.00012883
15 *1393:I0 *323:16 4.97697e-05
16 *1394:I0 *323:16 6.32467e-05
17 *1423:RN *323:16 0.00105171
18 *1440:RN *1559:I 0.000364024
19 *1474:I *323:16 4.6833e-05
20 *1557:I *1559:I 0.00155705
21 *1587:I *323:16 0.00271268
22 *1590:I *323:16 0
23 *260:12 *323:16 8.44547e-05
24 *283:8 *323:18 0
25 *285:27 *1559:I 0.000150974
26 *285:27 *323:16 0.000133863
27 *285:27 *323:18 0.000408828
28 *298:106 *1559:I 0.000613535
*RES
1 *1560:Z *323:16 29.1 
2 *323:16 *323:18 3.016 
3 *323:18 *1559:I 20.676 
4 *323:18 *1421:RN 4.5 
5 *323:16 *1422:RN 4.5 
*END

*D_NET *324 0.0103512
*CONN
*I *1463:RN I *D gf180mcu_fd_sc_mcu7t5v0__dffrnq_1
*I *1561:I I *D gf180mcu_fd_sc_mcu7t5v0__buf_1
*I *1434:RN I *D gf180mcu_fd_sc_mcu7t5v0__dffrnq_1
*I *1533:I I *D gf180mcu_fd_sc_mcu7t5v0__dlyb_1
*I *1534:Z O *D gf180mcu_fd_sc_mcu7t5v0__dlyb_1
*CAP
1 *1463:RN 0.000454474
2 *1561:I 6.60867e-05
3 *1434:RN 0.000795387
4 *1533:I 0.000191113
5 *1534:Z 0
6 *324:23 0.00129781
7 *324:4 0.00108193
8 *324:23 *1393:I1 0.000480532
9 *351:I *324:23 0.00012211
10 *382:I *324:23 0.00210304
11 *1277:A3 *1434:RN 0.000151506
12 *1277:A3 *1463:RN 0.000326941
13 *1393:I0 *1533:I 9.5382e-05
14 *1393:I0 *324:23 5.03795e-05
15 *1393:S *1533:I 0.000430961
16 *1393:S *324:23 0.000106399
17 *1415:A1 *1463:RN 0
18 *1589:I *1533:I 0
19 *113:6 *1463:RN 6.23542e-05
20 *170:55 *1434:RN 0.000835804
21 *170:55 *324:23 0.000241985
22 *228:10 *1434:RN 0.000397803
23 *241:119 *1434:RN 0.000158673
24 *241:119 *1561:I 0.000181756
25 *241:119 *324:23 0.000492699
26 *276:192 *1463:RN 0
27 *296:116 *1434:RN 0.000191452
28 *323:16 *1533:I 3.4596e-05
*RES
1 *1534:Z *324:4 4.5 
2 *324:4 *1533:I 6.892 
3 *324:4 *324:23 19.192 
4 *324:23 *1434:RN 17.556 
5 *324:23 *1561:I 5.02 
6 *1434:RN *1463:RN 12.952 
*END

*D_NET *325 0.00532703
*CONN
*I *1433:RN I *D gf180mcu_fd_sc_mcu7t5v0__dffrnq_1
*I *1431:RN I *D gf180mcu_fd_sc_mcu7t5v0__dffrnq_1
*I *1432:RN I *D gf180mcu_fd_sc_mcu7t5v0__dffrnq_1
*I *1561:Z O *D gf180mcu_fd_sc_mcu7t5v0__buf_1
*CAP
1 *1433:RN 0.000132543
2 *1431:RN 0
3 *1432:RN 0.000377433
4 *1561:Z 0.000194108
5 *325:12 0.000543472
6 *325:8 0.000492689
7 *382:I *325:8 0.000134935
8 *382:I *325:12 2.07034e-05
9 *1251:I *1433:RN 0.000242137
10 *1251:I *325:12 0.000791389
11 *1274:A1 *325:12 0.000140137
12 *1277:A3 *1433:RN 2.14739e-05
13 *1352:A1 *325:8 0.000121032
14 *1352:A1 *325:12 1.57138e-05
15 *1375:A3 *1432:RN 0.000133923
16 *1433:D *1432:RN 7.81176e-05
17 *1460:D *1432:RN 0.000113027
18 *1464:D *1432:RN 1.89503e-05
19 *170:26 *1432:RN 9.32341e-05
20 *272:97 *325:8 0.000277595
21 *272:97 *325:12 0.000564326
22 *272:109 *325:12 0.000820093
*RES
1 *1561:Z *325:8 10.976 
2 *325:8 *325:12 8.348 
3 *325:12 *1432:RN 7.308 
4 *325:12 *1431:RN 4.5 
5 *325:8 *1433:RN 9.936 
*END

*D_NET *326 0.0145268
*CONN
*I *1424:RN I *D gf180mcu_fd_sc_mcu7t5v0__dffrnq_1
*I *1425:RN I *D gf180mcu_fd_sc_mcu7t5v0__dffrnq_1
*I *1532:I I *D gf180mcu_fd_sc_mcu7t5v0__dlyb_1
*I *1534:I I *D gf180mcu_fd_sc_mcu7t5v0__dlyb_1
*I *1535:Z O *D gf180mcu_fd_sc_mcu7t5v0__dlyb_1
*CAP
1 *1424:RN 4.2145e-05
2 *1425:RN 0
3 *1532:I 0.00116757
4 *1534:I 9.9305e-05
5 *1535:Z 0.000528545
6 *326:27 0.00166858
7 *326:23 0.00076111
8 *326:10 0.000845808
9 *1532:I *1334:A1 3.57634e-06
10 *1532:I *1514:I 5.97024e-05
11 *1532:I *337:43 0.00102414
12 dout[7] *326:10 0
13 dout[7] *326:23 0.000654535
14 *350:I *326:27 2.08199e-05
15 *361:I *1532:I 0.00224238
16 *1324:B *1532:I 0.000162223
17 *1335:A1 *1532:I 5.45495e-05
18 *1335:A2 *1532:I 6.83697e-05
19 *1335:B *1532:I 0.000202331
20 *1391:I0 *1532:I 0.000465292
21 *1423:RN *326:23 0.000186065
22 *1423:RN *326:27 0.000913523
23 *1442:D *1532:I 0.000260275
24 *1512:I *1532:I 0.000166389
25 *1512:I *326:27 0.000747414
26 *1531:I *1532:I 2.74483e-05
27 *1560:I *1534:I 1.18566e-06
28 *1587:I *326:10 0.000487648
29 *1587:I *326:23 0.000265857
30 *1587:I *326:27 2.5656e-05
31 *1588:I *326:27 0
32 *146:30 *1532:I 0.000204648
33 *208:251 *1532:I 4.18492e-07
34 *285:21 *1532:I 0.000158227
35 *323:16 *1532:I 0.000559438
36 *323:16 *326:27 0.000451608
*RES
1 *1535:Z *326:10 13.576 
2 *326:10 *1534:I 9.52 
3 *326:10 *326:23 7.724 
4 *326:23 *326:27 6.24 
5 *326:27 *1532:I 27.956 
6 *326:27 *1425:RN 4.5 
7 *326:23 *1424:RN 4.812 
*END

*D_NET *327 0.0122544
*CONN
*I *1362:A1 I *D gf180mcu_fd_sc_mcu7t5v0__aoi211_2
*I *1330:A1 I *D gf180mcu_fd_sc_mcu7t5v0__aoi21_1
*I *1326:A1 I *D gf180mcu_fd_sc_mcu7t5v0__aoi21_1
*I *1365:B2 I *D gf180mcu_fd_sc_mcu7t5v0__aoi221_2
*I *1338:A1 I *D gf180mcu_fd_sc_mcu7t5v0__aoi21_1
*I *1342:A1 I *D gf180mcu_fd_sc_mcu7t5v0__aoi21_1
*I *1536:Z O *D gf180mcu_fd_sc_mcu7t5v0__dlyb_1
*CAP
1 *1362:A1 0
2 *1330:A1 3.45593e-05
3 *1326:A1 0.000174461
4 *1365:B2 0.000420674
5 *1338:A1 0.000147574
6 *1342:A1 0
7 *1536:Z 0.000241759
8 *327:55 0.000281153
9 *327:53 0.000793676
10 *327:36 0.00163323
11 *327:20 0.000800373
12 *327:8 0.00138557
13 *1326:A1 *335:49 0.000236256
14 *1330:A1 *335:49 1.26479e-05
15 *1338:A1 *338:28 0.000158737
16 *1365:B2 *1331:A1 0.000397755
17 *327:20 *338:28 1.41781e-05
18 *327:53 *1390:I1 0.00120932
19 *429:I *327:20 4.78889e-06
20 *441:I *327:53 0
21 *1328:A1 *327:53 8.0238e-05
22 *1328:A2 *1326:A1 0.000509988
23 *1330:A2 *1326:A1 5.81987e-05
24 *1330:A2 *327:55 2.79401e-05
25 *1332:A2 *1330:A1 0
26 *1332:A2 *327:53 0.000344443
27 *1332:A2 *327:55 0.000337071
28 *1332:B *327:8 0
29 *1338:A2 *1338:A1 5.74919e-05
30 *1342:A2 *327:20 4.50672e-05
31 *1343:A2 *1365:B2 0
32 *1343:A2 *327:53 0
33 *1344:A2 *327:20 1.02007e-05
34 *1362:A2 *1326:A1 9.01709e-05
35 *1362:A2 *327:55 6.56909e-05
36 *1365:A1 *1326:A1 0.000978265
37 *1368:A1 *327:20 0.000178425
38 *1368:A1 *327:36 2.32059e-05
39 *1368:A2 *327:36 1.21338e-05
40 *1369:A2 *327:20 1.87523e-05
41 *1371:B *1365:B2 0.000146737
42 *1374:B2 *327:20 0.000129348
43 *1421:D *327:53 4.91246e-05
44 *144:52 *327:8 1.71461e-05
45 *144:52 *327:36 8.16884e-06
46 *147:22 *327:36 2.68415e-05
47 *172:20 *1365:B2 0.000156691
48 *172:20 *327:53 0.000171035
49 *270:37 *327:53 0.000560747
50 *290:34 *327:53 8.7843e-05
51 *290:34 *327:55 0.000116751
*RES
1 *1536:Z *327:8 6.372 
2 *327:8 *327:20 4.992 
3 *327:20 *1342:A1 4.5 
4 *327:20 *1338:A1 5.852 
5 *327:8 *327:36 7.724 
6 *327:36 *1365:B2 12.328 
7 *327:36 *327:53 11.364 
8 *327:53 *327:55 1.352 
9 *327:55 *1326:A1 8.348 
10 *327:55 *1330:A1 4.812 
11 *327:53 *1362:A1 4.5 
*END

*D_NET *328 0.0179115
*CONN
*I *1317:A1 I *D gf180mcu_fd_sc_mcu7t5v0__and2_1
*I *1302:A1 I *D gf180mcu_fd_sc_mcu7t5v0__and2_1
*I *1313:A1 I *D gf180mcu_fd_sc_mcu7t5v0__aoi21_1
*I *1353:A1 I *D gf180mcu_fd_sc_mcu7t5v0__aoi221_2
*I *1350:A1 I *D gf180mcu_fd_sc_mcu7t5v0__aoi211_1
*I *1308:A1 I *D gf180mcu_fd_sc_mcu7t5v0__aoi21_1
*I *1537:Z O *D gf180mcu_fd_sc_mcu7t5v0__dlyb_1
*CAP
1 *1317:A1 2.74988e-05
2 *1302:A1 6.85263e-05
3 *1313:A1 0.000210212
4 *1353:A1 0.000242934
5 *1350:A1 0
6 *1308:A1 0.000381724
7 *1537:Z 0
8 *328:60 0.000658994
9 *328:43 0.00131359
10 *328:16 0.000917259
11 *328:10 0.000966587
12 *328:6 0.000728525
13 *1302:A1 *1356:C 1.28023e-05
14 *1302:A1 *333:22 8.23267e-05
15 *1308:A1 *1308:B 0.00035729
16 *1313:A1 *1313:B 2.46831e-05
17 *1313:A1 *1327:A1 0.000200421
18 *1317:A1 *333:22 0.000143503
19 *1353:A1 *1353:C 8.1598e-06
20 *328:16 *1308:B 1.07369e-05
21 *328:60 *1327:A1 2.9833e-05
22 *353:I *328:10 4.17612e-05
23 *353:I *328:43 0.000246102
24 *1307:A1 *328:60 0.000245121
25 *1308:A2 *1308:A1 1.12609e-05
26 *1316:A1 *328:60 7.80761e-05
27 *1316:A2 *1313:A1 0.000328552
28 *1316:A2 *328:60 0.000383638
29 *1317:A2 *1302:A1 3.74622e-05
30 *1322:A2 *328:60 5.64279e-05
31 *1347:B *1353:A1 0.00134238
32 *1350:A2 *1308:A1 1.65918e-05
33 *1350:B *328:16 0.000158617
34 *1351:A2 *1308:A1 0.000248743
35 *1435:RN *1313:A1 0.000839313
36 *1435:RN *328:60 0.00026679
37 *1436:RN *328:43 7.93334e-05
38 *1437:D *328:43 0.000382314
39 *1445:RN *328:16 1.07369e-05
40 *1467:RN *328:16 2.04597e-06
41 *1468:I *328:43 0.000167582
42 *1520:I *1353:A1 0.00112191
43 *1537:I *328:16 0.000532256
44 *132:12 *328:60 0.000169331
45 *143:14 *328:60 0.00145211
46 *143:31 *328:60 4.01514e-05
47 *170:26 *1353:A1 3.57634e-06
48 *175:16 *1302:A1 0.000510573
49 *175:16 *1317:A1 0.000319414
50 *229:51 *1353:A1 0.00011237
51 *241:62 *328:10 3.97521e-06
52 *241:62 *328:16 3.08296e-05
53 *241:62 *328:43 4.62207e-05
54 *243:21 *328:16 0.00104498
55 *243:36 *328:10 0.00041636
56 *243:36 *328:16 0.000752567
57 *291:44 *328:10 2.64624e-05
*RES
1 *1537:Z *328:6 9 
2 *328:6 *328:10 2.08 
3 *328:10 *328:16 11.156 
4 *328:16 *1308:A1 7.828 
5 *328:16 *1350:A1 4.5 
6 *328:10 *1353:A1 13.264 
7 *328:6 *328:43 8.764 
8 *328:43 *1313:A1 7.412 
9 *328:43 *328:60 11.052 
10 *328:60 *1302:A1 10.352 
11 *328:60 *1317:A1 9.936 
*END

*D_NET *329 0.000752099
*CONN
*I *1465:D I *D gf180mcu_fd_sc_mcu7t5v0__dffrnq_1
*I *1538:Z O *D gf180mcu_fd_sc_mcu7t5v0__dlyc_1
*CAP
1 *1465:D 0.000220907
2 *1538:Z 0.000220907
3 *1465:D *1288:B 0.00027616
4 *1498:I *1465:D 4.67771e-06
5 *223:36 *1465:D 4.67771e-06
6 *305:12 *1465:D 2.4769e-05
*RES
1 *1538:Z *1465:D 11.08 
*END

*D_NET *330 0.0196678
*CONN
*I *1385:I1 I *D gf180mcu_fd_sc_mcu7t5v0__mux2_2
*I *1303:B I *D gf180mcu_fd_sc_mcu7t5v0__aoi21_1
*I *1347:C I *D gf180mcu_fd_sc_mcu7t5v0__aoi211_2
*I *1304:A1 I *D gf180mcu_fd_sc_mcu7t5v0__nand2_1
*I *1435:Q O *D gf180mcu_fd_sc_mcu7t5v0__dffrnq_1
*CAP
1 *1385:I1 0.000548296
2 *1303:B 0.000434133
3 *1347:C 0.000219536
4 *1304:A1 0.00141117
5 *1435:Q 0.000155239
6 *330:30 0.00130882
7 *330:10 0.00200515
8 *330:8 0.000856078
9 *1304:A1 *1350:C 0.00116995
10 *1304:A1 *340:18 0.00140374
11 *1385:I1 *1386:I1 2.7402e-05
12 *330:10 *1350:C 0.0015203
13 *330:10 *1386:I1 3.87938e-05
14 *330:10 *331:10 0.000363923
15 *330:30 *1386:I1 0.000534632
16 *353:I *1303:B 4.27297e-05
17 *402:I *1304:A1 0.000115388
18 *1262:I *1304:A1 0.000561908
19 *1303:A1 *1303:B 8.49314e-05
20 *1304:A2 *1304:A1 0.000861495
21 *1306:A1 *1303:B 8.79783e-05
22 *1313:A2 *330:8 0.000529171
23 *1328:B *330:8 6.53336e-05
24 *1347:B *1347:C 2.38117e-05
25 *1348:A2 *1304:A1 6.02261e-06
26 *1386:I0 *1385:I1 0.00046333
27 *1416:D *1385:I1 0.000419265
28 *1417:D *1303:B 0.000151067
29 *1435:RN *1385:I1 0.000453316
30 *1435:RN *330:30 0.000224875
31 *1436:D *1304:A1 2.47495e-05
32 *1446:D *1304:A1 1.08085e-05
33 *1447:D *1304:A1 0.000357684
34 *1459:CLK *1304:A1 0.000225236
35 *1494:I *1347:C 2.20235e-05
36 *136:32 *1347:C 4.67771e-06
37 *166:22 *1304:A1 0.000112293
38 *191:20 *1385:I1 0.000623765
39 *219:18 *1304:A1 0.000405179
40 *241:62 *1385:I1 8.35594e-05
41 *269:65 *1385:I1 9.7683e-06
42 *276:77 *1304:A1 0.000102011
43 *285:51 *1304:A1 0.000579961
44 *285:51 *1385:I1 7.42486e-05
45 *285:51 *330:10 0.000450385
46 *285:51 *330:30 8.8491e-05
47 *285:57 *1304:A1 0.000127308
48 *314:16 *1385:I1 0.000277829
*RES
1 *1435:Q *330:8 10.56 
2 *330:8 *330:10 5.512 
3 *330:10 *1304:A1 26.992 
4 *330:10 *1347:C 10.144 
5 *330:8 *330:30 3.848 
6 *330:30 *1303:B 12.432 
7 *330:30 *1385:I1 16.072 
*END

*D_NET *331 0.0108417
*CONN
*I *1308:B I *D gf180mcu_fd_sc_mcu7t5v0__aoi21_1
*I *1386:I1 I *D gf180mcu_fd_sc_mcu7t5v0__mux2_2
*I *1309:A1 I *D gf180mcu_fd_sc_mcu7t5v0__nand2_1
*I *1350:C I *D gf180mcu_fd_sc_mcu7t5v0__aoi211_1
*I *1436:Q O *D gf180mcu_fd_sc_mcu7t5v0__dffrnq_1
*CAP
1 *1308:B 0.000457757
2 *1386:I1 0.00031751
3 *1309:A1 0.000111419
4 *1350:C 0.000739538
5 *1436:Q 0
6 *331:10 0.000546641
7 *331:6 0.000470951
8 *1304:A1 *1350:C 0.00116995
9 *1308:A1 *1308:B 0.00035729
10 *1328:B *1309:A1 4.01911e-05
11 *1385:I1 *1386:I1 2.7402e-05
12 *1467:RN *1308:B 2.71701e-05
13 *1467:RN *1350:C 3.22108e-05
14 *1468:I *1309:A1 0.000308957
15 *219:10 *1350:C 0.000841412
16 *219:12 *1350:C 0.000295598
17 *219:18 *1350:C 0.000512446
18 *241:62 *1350:C 0.000372849
19 *241:62 *1386:I1 0.00162128
20 *241:62 *331:10 0.00012278
21 *328:16 *1308:B 1.07369e-05
22 *330:10 *1350:C 0.0015203
23 *330:10 *1386:I1 3.87938e-05
24 *330:10 *331:10 0.000363923
25 *330:30 *1386:I1 0.000534632
*RES
1 *1436:Q *331:6 9 
2 *331:6 *331:10 1.456 
3 *331:10 *1350:C 16.488 
4 *331:10 *1309:A1 9.936 
5 *331:6 *1386:I1 13.472 
6 *1350:C *1308:B 12.328 
*END

*D_NET *332 0.0165762
*CONN
*I *1314:A1 I *D gf180mcu_fd_sc_mcu7t5v0__nand2_1
*I *1387:I1 I *D gf180mcu_fd_sc_mcu7t5v0__mux2_2
*I *1313:B I *D gf180mcu_fd_sc_mcu7t5v0__aoi21_1
*I *1353:C I *D gf180mcu_fd_sc_mcu7t5v0__aoi221_2
*I *1437:Q O *D gf180mcu_fd_sc_mcu7t5v0__dffrnq_1
*CAP
1 *1314:A1 0.000814488
2 *1387:I1 0.000282518
3 *1313:B 0.000655877
4 *1353:C 0.000619844
5 *1437:Q 0
6 *332:40 0.00154719
7 *332:8 0.00156464
8 *332:6 0.000739095
9 *1313:B *1327:A1 8.16884e-06
10 *404:I *1314:A1 4.27515e-05
11 *404:I *1353:C 0.00204886
12 *404:I *332:8 0.000878325
13 *404:I *332:40 0.00115327
14 *405:I *1314:A1 1.19638e-05
15 *424:I *1314:A1 4.18133e-05
16 *424:I *1387:I1 0.000157226
17 *424:I *332:40 9.31265e-05
18 *1313:A1 *1313:B 2.46831e-05
19 *1313:A2 *1353:C 0.00138328
20 *1316:A1 *1353:C 8.95945e-05
21 *1347:B *1353:C 2.90891e-05
22 *1353:A1 *1353:C 8.1598e-06
23 *1386:I0 *1314:A1 0.000206817
24 *1386:S *1314:A1 5.91832e-05
25 *1435:RN *1313:B 0.000406201
26 *1481:I *332:40 1.91124e-05
27 *1495:I *1313:B 1.07369e-05
28 *1496:I *1314:A1 0.00011246
29 *132:16 *1313:B 0.000224153
30 *134:24 *1314:A1 7.8699e-05
31 *134:24 *332:40 0.000104835
32 *143:14 *1313:B 0.000245386
33 *170:26 *1353:C 0.000397744
34 *171:24 *1353:C 9.09749e-05
35 *191:20 *1314:A1 0.0011725
36 *191:20 *1387:I1 0.000162388
37 *219:10 *1353:C 0.000168888
38 *232:56 *1314:A1 8.83236e-05
39 *241:88 *1387:I1 0.000478161
40 *243:67 *1353:C 0.000194598
41 *274:159 *1314:A1 3.26114e-05
42 *289:14 *332:8 0
43 *289:14 *332:40 0
44 *292:78 *1353:C 1.63725e-06
45 *314:16 *1314:A1 0.000126819
*RES
1 *1437:Q *332:6 9 
2 *332:6 *332:8 2.6 
3 *332:8 *1353:C 17.736 
4 *332:8 *1313:B 14.616 
5 *332:6 *332:40 4.264 
6 *332:40 *1387:I1 20.704 
7 *332:40 *1314:A1 25.384 
*END

*D_NET *333 0.0226282
*CONN
*I *1388:I1 I *D gf180mcu_fd_sc_mcu7t5v0__mux2_2
*I *1318:B I *D gf180mcu_fd_sc_mcu7t5v0__aoi21_1
*I *1319:A1 I *D gf180mcu_fd_sc_mcu7t5v0__nand2_1
*I *1356:C I *D gf180mcu_fd_sc_mcu7t5v0__aoi221_2
*I *1438:Q O *D gf180mcu_fd_sc_mcu7t5v0__dffrnq_1
*CAP
1 *1388:I1 0.000112574
2 *1318:B 0.00029456
3 *1319:A1 0.00361383
4 *1356:C 0.000336011
5 *1438:Q 0.000360914
6 *333:22 0.00442257
7 *333:16 0.00117328
8 *333:14 0.000879484
9 *1318:B *1322:B 0
10 *392:I *1356:C 6.8763e-06
11 *392:I *1388:I1 0.000632965
12 *392:I *333:16 0.00174548
13 *392:I *333:22 0.000789508
14 *1302:A1 *1356:C 1.28023e-05
15 *1302:A1 *333:22 8.23267e-05
16 *1312:A1 *1356:C 1.36673e-05
17 *1317:A1 *333:22 0.000143503
18 *1317:A2 *1356:C 1.85287e-05
19 *1317:A2 *333:22 0.000667735
20 *1318:A2 *1318:B 8.94086e-06
21 *1318:A2 *333:22 2.37133e-06
22 *1324:A2 *333:16 0
23 *1324:A2 *333:22 0
24 *1328:B *1356:C 3.73779e-05
25 *1356:A2 *1356:C 0.000391428
26 *1387:S *1388:I1 0.000557466
27 *1419:D *333:14 0.000419418
28 *1438:D *333:16 0.000592063
29 *1438:D *333:22 0.000608934
30 *1496:I *333:14 7.19283e-05
31 *132:12 *333:22 6.96644e-06
32 *144:25 *1356:C 0.000348212
33 *172:20 *1319:A1 0
34 *175:16 *1356:C 0
35 *175:16 *333:22 1.57138e-05
36 *191:20 *333:14 4.87618e-06
37 *208:147 *1318:B 9.35542e-06
38 *208:151 *1318:B 9.01231e-05
39 *208:265 *1319:A1 0.000359824
40 *208:301 *1319:A1 0.000116045
41 *272:63 *1319:A1 0.00220996
42 *272:78 *1319:A1 0.00133457
43 *274:159 *1388:I1 0.000103788
44 *285:51 *1388:I1 3.22108e-05
*RES
1 *1438:Q *333:14 12.12 
2 *333:14 *333:16 4.888 
3 *333:16 *333:22 9.7 
4 *333:22 *1356:C 16.308 
5 *333:22 *1319:A1 38.98 
6 *333:16 *1318:B 10.768 
7 *333:14 *1388:I1 11.08 
*END

*D_NET *334 0.0222243
*CONN
*I *1323:A1 I *D gf180mcu_fd_sc_mcu7t5v0__nand2_1
*I *1389:I1 I *D gf180mcu_fd_sc_mcu7t5v0__mux2_2
*I *1359:C I *D gf180mcu_fd_sc_mcu7t5v0__aoi211_2
*I *1322:B I *D gf180mcu_fd_sc_mcu7t5v0__aoi21_1
*I *1439:Q O *D gf180mcu_fd_sc_mcu7t5v0__dffrnq_1
*CAP
1 *1323:A1 0.00309698
2 *1389:I1 0
3 *1359:C 1.86388e-05
4 *1322:B 0.000381555
5 *1439:Q 0
6 *334:24 0.00185104
7 *334:14 0.00183617
8 *334:4 0.00348231
9 *1323:A1 *335:12 0
10 *1323:A1 *339:10 0.0015694
11 *369:I *1323:A1 0
12 *392:I *334:24 0
13 *421:I *1323:A1 0.000361155
14 *421:I *334:14 7.08065e-05
15 *423:I *334:24 3.62248e-05
16 *1318:A2 *1322:B 0.000331071
17 *1318:B *1322:B 0
18 *1320:B *1323:A1 0.00261994
19 *1324:B *1323:A1 0.0011389
20 *1328:A1 *1323:A1 7.27388e-05
21 *1328:B *1323:A1 0.000124202
22 *1335:B *1323:A1 0
23 *1391:I0 *1323:A1 1.40761e-05
24 *1393:S *1323:A1 9.9247e-06
25 *1420:D *1323:A1 0.000222966
26 *1420:D *334:14 0.000114849
27 *1437:RN *1322:B 4.54208e-05
28 *1438:D *1322:B 0.000389367
29 *1438:D *1359:C 0.000160298
30 *1438:D *334:24 0
31 *1438:RN *334:24 4.31743e-05
32 *1439:D *334:24 0.00106249
33 *1441:RN *1323:A1 1.23022e-05
34 *1489:I *1323:A1 7.46936e-05
35 *1496:I *334:24 0.000137291
36 *1497:I *334:24 2.56304e-05
37 *1531:I *1323:A1 0
38 *146:30 *1323:A1 0.00139796
39 *208:147 *1322:B 0
40 *208:205 *1323:A1 0
41 *208:205 *334:24 0
42 *243:79 *1323:A1 2.71048e-06
43 *267:18 *334:24 6.37387e-06
44 *274:159 *1323:A1 2.79108e-05
45 *274:159 *334:14 0.00105588
46 *276:220 *1323:A1 1.07369e-05
47 *285:51 *334:14 0.000408576
48 *318:10 *1323:A1 1.05862e-05
*RES
1 *1439:Q *334:4 4.5 
2 *334:4 *334:14 13.472 
3 *334:14 *334:24 18.672 
4 *334:24 *1322:B 7.828 
5 *334:24 *1359:C 5.02 
6 *334:14 *1389:I1 4.5 
7 *334:4 *1323:A1 42.204 
*END

*D_NET *335 0.0196459
*CONN
*I *1362:C I *D gf180mcu_fd_sc_mcu7t5v0__aoi211_2
*I *1326:B I *D gf180mcu_fd_sc_mcu7t5v0__aoi21_1
*I *1327:A1 I *D gf180mcu_fd_sc_mcu7t5v0__nand2_1
*I *1390:I1 I *D gf180mcu_fd_sc_mcu7t5v0__mux2_2
*I *1440:Q O *D gf180mcu_fd_sc_mcu7t5v0__dffrnq_1
*CAP
1 *1362:C 0
2 *1326:B 6.0104e-06
3 *1327:A1 0.00167526
4 *1390:I1 0.000448336
5 *1440:Q 0.00164027
6 *335:49 0.00228877
7 *335:31 0.000662461
8 *335:12 0.00214357
9 *335:31 *1330:B 1.51448e-05
10 *335:49 *1330:B 0.000106148
11 *355:I *335:12 7.93075e-05
12 *421:I *335:12 0
13 *1302:A2 *1327:A1 0.000446071
14 *1307:A1 *1327:A1 0.00020446
15 *1313:A1 *1327:A1 0.000200421
16 *1313:A2 *1327:A1 0.000178948
17 *1313:B *1327:A1 8.16884e-06
18 *1315:A2 *1327:A1 0.000454633
19 *1315:B *1327:A1 0.000104752
20 *1316:A1 *1327:A1 0.00120834
21 *1316:A2 *1327:A1 0.000771989
22 *1323:A1 *335:12 0
23 *1326:A1 *335:49 0.000236256
24 *1328:A2 *335:49 0.000500761
25 *1328:B *1327:A1 0.000135113
26 *1328:B *335:49 0.000216413
27 *1330:A1 *335:49 1.26479e-05
28 *1332:B *1390:I1 0.000227823
29 *1359:B *335:49 0.000403179
30 *1362:A2 *335:49 0.000336232
31 *1362:B *1390:I1 0.000463981
32 *1362:B *335:31 3.95985e-05
33 *1365:A1 *1390:I1 0.000162103
34 *1365:A1 *335:49 1.26446e-05
35 *1437:RN *335:31 0.000252982
36 *1437:RN *335:49 0.000805616
37 *1440:RN *335:12 0
38 *1495:I *1327:A1 1.34007e-05
39 *108:43 *1326:B 0.000113027
40 *108:43 *1327:A1 0.000427044
41 *143:31 *1327:A1 4.20416e-05
42 *144:52 *1326:B 7.64462e-05
43 *144:52 *1327:A1 0.000529171
44 *208:123 *335:49 0.000134794
45 *267:18 *335:49 0.000113027
46 *270:37 *1390:I1 2.51788e-05
47 *274:159 *335:12 2.13547e-05
48 *276:114 *1327:A1 0.000104752
49 *290:10 *1390:I1 0.00010051
50 *290:34 *1390:I1 0.000257639
51 *317:24 *335:12 0
52 *327:53 *1390:I1 0.00120932
53 *328:60 *1327:A1 2.9833e-05
*RES
1 *1440:Q *335:12 17.84 
2 *335:12 *1390:I1 14.824 
3 *335:12 *335:31 5.228 
4 *335:31 *335:49 25.8 
5 *335:49 *1327:A1 20.412 
6 *335:49 *1326:B 4.812 
7 *335:31 *1362:C 4.5 
*END

*D_NET *336 0.0136252
*CONN
*I *1391:I1 I *D gf180mcu_fd_sc_mcu7t5v0__mux2_2
*I *1365:C I *D gf180mcu_fd_sc_mcu7t5v0__aoi221_2
*I *1331:A1 I *D gf180mcu_fd_sc_mcu7t5v0__nand2_1
*I *1330:B I *D gf180mcu_fd_sc_mcu7t5v0__aoi21_1
*I *1441:Q O *D gf180mcu_fd_sc_mcu7t5v0__dffrnq_1
*CAP
1 *1391:I1 0.000293472
2 *1365:C 0
3 *1331:A1 0.000731678
4 *1330:B 0.000245976
5 *1441:Q 0
6 *336:31 0.00115133
7 *336:16 0.00123267
8 *336:4 0.00086052
9 *1305:B *1331:A1 0
10 *1328:A1 *336:31 0.000188231
11 *1332:A2 *1330:B 0.000494697
12 *1332:A2 *336:16 0.000100004
13 *1338:A2 *1331:A1 4.32143e-05
14 *1362:A2 *1330:B 0.000186843
15 *1362:B *1330:B 0.000111066
16 *1365:A2 *1331:A1 9.15818e-05
17 *1365:A2 *336:31 0.000388272
18 *1365:B1 *1331:A1 0.000343539
19 *1365:B2 *1331:A1 0.000397755
20 *1371:B *1331:A1 0.000738666
21 *1372:A2 *1331:A1 0.000489998
22 *1391:S *1391:I1 1.17531e-05
23 *1437:RN *1330:B 4.73731e-05
24 *1437:RN *336:16 6.65041e-05
25 *1441:D *336:16 6.15739e-05
26 *1502:I *1331:A1 3.87446e-05
27 *1518:I *336:31 0.00114931
28 *1531:I *1391:I1 1.61065e-05
29 *1531:I *336:16 2.11346e-05
30 *108:43 *1331:A1 8.48683e-06
31 *108:43 *336:31 0.000619771
32 *144:52 *336:31 3.57634e-06
33 *172:20 *1331:A1 2.7767e-05
34 *172:20 *336:16 3.58826e-05
35 *207:12 *1331:A1 4.17589e-06
36 *243:67 *1331:A1 0.000456562
37 *243:67 *336:16 4.04741e-05
38 *243:67 *336:31 5.76667e-05
39 *266:20 *1331:A1 0.00190684
40 *270:37 *336:16 3.68494e-05
41 *274:81 *1331:A1 0.000147632
42 *274:155 *1331:A1 0.000262946
43 *290:10 *336:31 5.23324e-05
44 *298:106 *1391:I1 4.54035e-05
45 *298:106 *336:16 0.000285203
46 *312:14 *1331:A1 1.03283e-05
47 *335:31 *1330:B 1.51448e-05
48 *335:49 *1330:B 0.000106148
*RES
1 *1441:Q *336:4 4.5 
2 *336:4 *336:16 13.784 
3 *336:16 *1330:B 7.516 
4 *336:16 *336:31 13.784 
5 *336:31 *1331:A1 32.484 
6 *336:31 *1365:C 4.5 
7 *336:4 *1391:I1 6.476 
*END

*D_NET *337 0.0196622
*CONN
*I *1392:I1 I *D gf180mcu_fd_sc_mcu7t5v0__mux2_2
*I *1333:B I *D gf180mcu_fd_sc_mcu7t5v0__aoi21_1
*I *1368:C I *D gf180mcu_fd_sc_mcu7t5v0__aoi211_2
*I *1334:A1 I *D gf180mcu_fd_sc_mcu7t5v0__nand2_1
*I *1442:Q O *D gf180mcu_fd_sc_mcu7t5v0__dffrnq_1
*CAP
1 *1392:I1 0.000561437
2 *1333:B 0.000139852
3 *1368:C 0.000314866
4 *1334:A1 0.0008949
5 *1442:Q 0
6 *337:43 0.00131486
7 *337:29 0.00198145
8 *337:4 0.00145478
9 *1334:A1 *1514:I 0.000456851
10 *337:43 *1514:I 0.000595578
11 *350:I *1392:I1 0.000168812
12 *355:I *1334:A1 0.00010125
13 *361:I *1334:A1 0.00114418
14 *451:I *337:29 0.000704917
15 *1332:B *1368:C 0.00149267
16 *1333:A1 *1368:C 1.38084e-05
17 *1335:A1 *337:43 5.65788e-06
18 *1335:A2 *1368:C 0.000334711
19 *1335:A2 *337:43 0.000389754
20 *1371:B *1368:C 0.000144536
21 *1392:I0 *1392:I1 0.000168812
22 *1422:CLK *1334:A1 0.000151334
23 *1425:D *337:29 4.91607e-05
24 *1442:D *337:43 5.52588e-05
25 *1512:I *1334:A1 1.40331e-05
26 *1531:I *1334:A1 1.17668e-05
27 *1532:I *1334:A1 3.57634e-06
28 *1532:I *337:43 0.00102414
29 *1558:I *1334:A1 6.04206e-05
30 *170:26 *1368:C 3.22108e-05
31 *213:21 *337:29 0.000115253
32 *248:89 *337:29 0.000172702
33 *270:37 *1333:B 6.01821e-05
34 *274:155 *1368:C 0.00194828
35 *274:155 *337:43 0.000416808
36 *276:192 *1333:B 0.000478841
37 *283:8 *1334:A1 0.000933101
38 *284:24 *337:43 0.000600308
39 *298:106 *1333:B 9.20935e-05
40 *298:106 *337:43 0.0010083
41 *322:16 *1334:A1 1.35522e-05
42 *323:16 *1334:A1 2.42266e-05
43 *323:18 *1334:A1 1.29379e-05
*RES
1 *1442:Q *337:4 4.5 
2 *337:4 *1334:A1 22.548 
3 *337:4 *337:29 13.472 
4 *337:29 *337:43 21.82 
5 *337:43 *1368:C 15.136 
6 *337:43 *1333:B 10.768 
7 *337:29 *1392:I1 15.996 
*END

*D_NET *338 0.0180254
*CONN
*I *1393:I1 I *D gf180mcu_fd_sc_mcu7t5v0__mux2_2
*I *1339:A1 I *D gf180mcu_fd_sc_mcu7t5v0__nand2_1
*I *1371:C I *D gf180mcu_fd_sc_mcu7t5v0__aoi211_2
*I *1338:B I *D gf180mcu_fd_sc_mcu7t5v0__aoi21_1
*I *1443:Q O *D gf180mcu_fd_sc_mcu7t5v0__dffrnq_1
*CAP
1 *1393:I1 0.0013088
2 *1339:A1 0.000145369
3 *1371:C 0.000322053
4 *1338:B 0
5 *1443:Q 0.00019627
6 *338:39 0.000607445
7 *338:28 0.00146041
8 *338:12 0.00282546
9 *1339:A1 *1342:B 5.86758e-05
10 *338:12 *1514:I 9.84747e-05
11 *338:28 *1342:B 0.000397958
12 *338:28 *1514:I 0.00132647
13 *338:39 *1342:B 0.000256987
14 *361:I *338:12 0.000104304
15 *412:I *338:28 0
16 *429:I *338:28 5.02328e-05
17 *1338:A1 *338:28 0.000158737
18 *1338:A2 *1371:C 0.00106891
19 *1338:A2 *338:39 3.82959e-06
20 *1344:A2 *338:28 0.000598258
21 *1371:B *1371:C 0.000103788
22 *1424:D *1393:I1 0.000401138
23 *1425:D *338:28 0.00058138
24 *1443:D *338:28 0.000394448
25 *1444:RN *338:28 0.000141716
26 *191:34 *1393:I1 0.00241762
27 *191:34 *338:12 0.0003829
28 *248:89 *338:28 4.60967e-05
29 *266:20 *1371:C 5.48812e-05
30 *270:10 *338:28 2.2844e-05
31 *274:97 *1339:A1 0.000325904
32 *274:97 *1371:C 0.00105599
33 *274:108 *1339:A1 0.000121284
34 *276:192 *338:28 0.000401652
35 *322:16 *338:28 6.64107e-06
36 *322:18 *338:28 8.37152e-05
37 *324:23 *1393:I1 0.000480532
38 *327:20 *338:28 1.41781e-05
*RES
1 *1443:Q *338:12 14.956 
2 *338:12 *338:28 30.48 
3 *338:28 *1338:B 4.5 
4 *338:28 *338:39 1.768 
5 *338:39 *1371:C 9.076 
6 *338:39 *1339:A1 6.476 
7 *338:12 *1393:I1 25.356 
*END

*D_NET *339 0.00978651
*CONN
*I *1394:I1 I *D gf180mcu_fd_sc_mcu7t5v0__mux2_2
*I *1343:A1 I *D gf180mcu_fd_sc_mcu7t5v0__nand2_1
*I *1342:B I *D gf180mcu_fd_sc_mcu7t5v0__aoi21_1
*I *1444:Q O *D gf180mcu_fd_sc_mcu7t5v0__dffrnq_1
*CAP
1 *1394:I1 8.926e-05
2 *1343:A1 0
3 *1342:B 0.00102735
4 *1444:Q 0.000600963
5 *339:12 0.001385
6 *339:10 0.00104787
7 *358:I *1342:B 8.09177e-05
8 *1286:A2 *1342:B 6.61468e-06
9 *1323:A1 *339:10 0.0015694
10 *1339:A1 *1342:B 5.86758e-05
11 *1393:S *1394:I1 1.56728e-05
12 *1424:CLK *339:10 3.15668e-05
13 *1444:D *1342:B 0
14 *1444:CLK *1342:B 0.000135924
15 *1444:CLK *339:12 2.7435e-05
16 *1463:D *1342:B 0.000684605
17 *1463:D *339:12 0.000142744
18 *1475:I *1342:B 0.000158682
19 *1475:I *339:12 0.00016136
20 *1489:I *339:10 0.000829116
21 *113:6 *1342:B 0
22 *146:30 *339:10 0.000217199
23 *208:279 *339:10 0.000237322
24 *208:279 *339:12 0.000243532
25 *212:28 *339:10 0.000169331
26 *215:10 *339:10 1.57354e-05
27 *215:10 *339:12 5.87367e-06
28 *274:108 *1342:B 0.000186598
29 *284:31 *1394:I1 2.81522e-06
30 *338:28 *1342:B 0.000397958
31 *338:39 *1342:B 0.000256987
*RES
1 *1444:Q *339:10 15.864 
2 *339:10 *339:12 3.224 
3 *339:12 *1342:B 17.736 
4 *339:12 *1343:A1 9 
5 *339:10 *1394:I1 9.52 
*END

*D_NET *340 0.0194807
*CONN
*I *1376:A2 I *D gf180mcu_fd_sc_mcu7t5v0__aoi21_1
*I *1401:A1 I *D gf180mcu_fd_sc_mcu7t5v0__aoi211_1
*I *1517:I I *D gf180mcu_fd_sc_mcu7t5v0__dlyb_1
*I *1459:Q O *D gf180mcu_fd_sc_mcu7t5v0__dffsnq_1
*CAP
1 *1376:A2 0.00065006
2 *1401:A1 0
3 *1517:I 0
4 *1459:Q 0.00079355
5 *340:37 0.00172382
6 *340:18 0.00186731
7 *1376:A2 *1515:I 0.000285787
8 *1376:A2 *343:27 1.8959e-05
9 *1290:A2 *1376:A2 0.000452841
10 *1304:A1 *340:18 0.00140374
11 *1398:I1 *340:18 0.000200558
12 *1398:I1 *340:37 0.00169025
13 *1398:S *340:18 3.22108e-05
14 *1400:A2 *340:37 0.000196407
15 *1401:A2 *340:37 2.21524e-05
16 *1402:A1 *340:37 0.00105305
17 *1402:A2 *340:37 0.000461814
18 *1407:B2 *1376:A2 2.81522e-06
19 *1428:D *340:37 0.000249046
20 *1428:CLK *340:37 0.00130777
21 *1436:D *340:18 0.000306346
22 *1447:D *340:18 0.000249794
23 *1447:CLK *340:18 0.000256509
24 *1447:CLK *340:37 0.000155419
25 *110:33 *1376:A2 0.00063375
26 *123:16 *1376:A2 0.00127485
27 *123:16 *340:37 3.4596e-05
28 *192:8 *340:37 0.000265539
29 *208:15 *1376:A2 0.000200253
30 *208:19 *1376:A2 0
31 *219:18 *340:18 0.00084259
32 *231:22 *1376:A2 0.00039387
33 *269:10 *340:18 0.000349099
34 *269:10 *340:37 6.44515e-05
35 *274:14 *1376:A2 3.94467e-05
36 *274:34 *1376:A2 0.000381688
37 *276:46 *340:37 3.34022e-05
38 *276:147 *1376:A2 3.60432e-05
39 *287:20 *1376:A2 2.56392e-05
40 *290:151 *340:37 0.000840779
41 *291:79 *340:37 2.46957e-05
42 *293:54 *1376:A2 0.000356821
43 *293:54 *340:37 0.000302981
*RES
1 *1459:Q *340:18 23.172 
2 *340:18 *1517:I 4.5 
3 *340:18 *340:37 23.456 
4 *340:37 *1401:A1 4.5 
5 *340:37 *1376:A2 21.924 
*END

*D_NET *341 0.00990088
*CONN
*I *1408:A2 I *D gf180mcu_fd_sc_mcu7t5v0__oai31_1
*I *1516:I I *D gf180mcu_fd_sc_mcu7t5v0__dlyb_1
*I *1460:Q O *D gf180mcu_fd_sc_mcu7t5v0__dffrnq_1
*CAP
1 *1408:A2 0.000117442
2 *1516:I 0.000444345
3 *1460:Q 0.0016152
4 *341:14 0.00217699
5 *1516:I *1255:I 0.000208852
6 *1516:I *344:56 0.000337385
7 *341:14 *1293:A1 0.000364104
8 *341:14 *1293:A2 5.43176e-05
9 *341:14 *344:60 2.65622e-05
10 *1273:A1 *1408:A2 0.00014811
11 *1273:A1 *1516:I 0.000595306
12 *1273:A2 *341:14 0.000108453
13 *1296:A3 *1516:I 0.000116476
14 *1299:A2 *341:14 6.34406e-05
15 *1375:A2 *1408:A2 0.000251294
16 *1396:A2 *341:14 0.000502057
17 *1410:A2 *1408:A2 0.0001288
18 *1460:CLK *341:14 0.000131618
19 *1464:D *341:14 1.83232e-05
20 *1466:D *341:14 2.18891e-06
21 *1488:I *1408:A2 0.000244005
22 *1601:I *1516:I 3.76797e-05
23 *86:16 *341:14 0.000512282
24 *100:16 *341:14 0.000418773
25 *100:31 *341:14 9.09594e-05
26 *100:54 *341:14 4.88751e-05
27 *208:457 *341:14 0
28 *210:17 *341:14 4.44644e-06
29 *225:20 *1408:A2 1.35135e-05
30 *239:97 *341:14 0.000242798
31 *288:26 *341:14 0.000876289
*RES
1 *1460:Q *341:14 27.956 
2 *341:14 *1516:I 18.284 
3 *341:14 *1408:A2 15.372 
*END

*D_NET *342 0.0181046
*CONN
*I *1345:A2 I *D gf180mcu_fd_sc_mcu7t5v0__nor2_1
*I *1379:A1 I *D gf180mcu_fd_sc_mcu7t5v0__nor3_1
*I *1538:I I *D gf180mcu_fd_sc_mcu7t5v0__dlyc_1
*I *1461:Q O *D gf180mcu_fd_sc_mcu7t5v0__dffrnq_1
*CAP
1 *1345:A2 7.15575e-05
2 *1379:A1 0.00140663
3 *1538:I 0.000567683
4 *1461:Q 4.41301e-05
5 *342:30 0.00200174
6 *1336:A1 *1379:A1 7.95519e-06
7 *1357:A2 *1379:A1 0.000914879
8 *1369:A1 *1379:A1 2.34403e-05
9 *1369:B *342:30 0.00034836
10 *1372:A2 *1345:A2 9.35795e-05
11 *1372:A2 *342:30 0.000118787
12 *1372:B *1379:A1 0.0016657
13 *1373:A2 *1379:A1 0.000581432
14 *1374:A1 *1379:A1 2.33885e-05
15 *1374:B2 *1379:A1 0.0004039
16 *1452:D *1379:A1 0.000633658
17 *1453:D *1379:A1 4.64846e-05
18 *1454:D *1379:A1 0.00026012
19 *1548:I *1345:A2 0.000319003
20 *1548:I *342:30 0.00119276
21 *1567:I *1538:I 0.000200542
22 *1567:I *342:30 1.34942e-05
23 *1571:I *342:30 0
24 *120:67 *1379:A1 6.35093e-06
25 *122:20 *1379:A1 0.00109496
26 *122:20 *342:30 0.00100214
27 *206:43 *1379:A1 0.000810034
28 *248:48 *342:30 5.47431e-06
29 *265:38 *1379:A1 9.54877e-06
30 *281:10 *1379:A1 0.00197512
31 *281:29 *1379:A1 0.000146631
32 *289:134 *1379:A1 9.98451e-05
33 *296:34 *342:30 4.4504e-06
34 *297:26 *1379:A1 0.000157533
35 *298:14 *342:30 0.000883345
36 *298:65 *1538:I 0.000507389
37 *298:65 *342:30 0.0004162
38 *304:12 *342:30 4.63351e-05
*RES
1 *1461:Q *1538:I 10.352 
2 *1538:I *342:30 26.112 
3 *342:30 *1379:A1 37.24 
4 *342:30 *1345:A2 9.936 
*END

*D_NET *343 0.0102109
*CONN
*I *1403:C I *D gf180mcu_fd_sc_mcu7t5v0__oai211_1
*I *1405:A1 I *D gf180mcu_fd_sc_mcu7t5v0__oai21_1
*I *1515:I I *D gf180mcu_fd_sc_mcu7t5v0__dlyb_1
*I *1462:Q O *D gf180mcu_fd_sc_mcu7t5v0__dffrnq_1
*CAP
1 *1403:C 0
2 *1405:A1 0.00042423
3 *1515:I 0.000210453
4 *1462:Q 0.00096605
5 *343:27 0.000537634
6 *343:12 0.00128991
7 *1284:A1 *1405:A1 0.000249314
8 *1292:A1 *343:12 0.000639156
9 *1292:A2 *343:12 0.000102462
10 *1305:B *343:12 0.000179359
11 *1376:A2 *1515:I 0.000285787
12 *1376:A2 *343:27 1.8959e-05
13 *1405:B *1405:A1 6.32781e-05
14 *1407:B2 *343:27 0.00061262
15 *1407:C *343:12 0.000150729
16 *1469:I *343:12 5.35362e-06
17 *118:14 *1405:A1 3.34828e-05
18 *123:16 *343:27 0.000404701
19 *123:45 *343:12 0.000394759
20 *196:10 *1405:A1 3.20438e-05
21 *198:26 *343:12 3.57634e-06
22 *208:11 *343:12 5.59614e-05
23 *208:15 *1515:I 2.66506e-05
24 *208:15 *343:12 9.55346e-05
25 *208:19 *1405:A1 5.57171e-06
26 *208:19 *1515:I 5.67861e-07
27 *208:371 *1515:I 6.62358e-06
28 *231:22 *1515:I 2.14739e-05
29 *231:22 *343:27 1.37509e-05
30 *274:14 *1405:A1 0.000359587
31 *276:14 *343:12 0.000483799
32 *276:20 *1405:A1 0.000476383
33 *276:147 *1405:A1 9.78417e-05
34 *287:20 *1515:I 0.000101124
35 *287:20 *343:12 8.00851e-05
36 *293:14 *1405:A1 0.000116476
37 *293:22 *1405:A1 0.000895884
38 *302:10 *343:12 0.000769732
*RES
1 *1462:Q *343:12 18.464 
2 *343:12 *1515:I 10.664 
3 *343:12 *343:27 6.268 
4 *343:27 *1405:A1 18.7 
5 *343:27 *1403:C 4.5 
*END

*D_NET *344 0.0168264
*CONN
*I *1412:A1 I *D gf180mcu_fd_sc_mcu7t5v0__aoi22_1
*I *1408:A1 I *D gf180mcu_fd_sc_mcu7t5v0__oai31_1
*I *1375:A1 I *D gf180mcu_fd_sc_mcu7t5v0__nor3_1
*I *1293:A2 I *D gf180mcu_fd_sc_mcu7t5v0__or3_1
*I *1255:I I *D gf180mcu_fd_sc_mcu7t5v0__clkinv_1
*I *1285:B I *D gf180mcu_fd_sc_mcu7t5v0__oai21_1
*I *1463:Q O *D gf180mcu_fd_sc_mcu7t5v0__dffrnq_1
*CAP
1 *1412:A1 2.72817e-05
2 *1408:A1 9.24631e-05
3 *1375:A1 0.000122036
4 *1293:A2 0.000256066
5 *1255:I 0.000737633
6 *1285:B 8.41587e-05
7 *1463:Q 9.66827e-05
8 *344:60 0.000599918
9 *344:56 0.00113234
10 *344:31 0.00158895
11 *344:27 0.00146543
12 *344:8 0.00158573
13 *1293:A2 *1293:A1 7.79255e-05
14 *380:I *344:27 0.000723806
15 *380:I *344:31 0.000105493
16 *1273:A1 *1255:I 3.60635e-05
17 *1273:A1 *1375:A1 9.95226e-05
18 *1296:A2 *1412:A1 2.84826e-05
19 *1296:A3 *1255:I 0.00035787
20 *1299:A2 *1293:A2 0.00025233
21 *1300:A2 *344:27 4.37436e-05
22 *1301:A2 *344:27 0.000482553
23 *1346:A1 *344:27 2.80412e-06
24 *1349:A2 *344:27 0.000262137
25 *1375:A2 *1375:A1 0.000124004
26 *1377:A2 *1375:A1 4.24934e-05
27 *1408:A3 *1375:A1 0.000254586
28 *1412:A2 *344:27 0.000182111
29 *1412:B1 *1408:A1 0.000207999
30 *1412:B1 *344:56 0.000409805
31 *1412:B2 *344:27 2.97547e-05
32 *1412:B2 *344:31 2.73939e-05
33 *1412:B2 *344:56 1.17531e-05
34 *1413:B2 *1408:A1 1.61584e-05
35 *1413:B2 *1412:A1 4.04589e-05
36 *1413:B2 *344:56 1.43763e-05
37 *1415:A1 *1285:B 0.000177967
38 *1415:A1 *344:8 0.000179364
39 *1415:A1 *344:27 2.86923e-05
40 *1415:A2 *344:27 4.17476e-05
41 *1462:D *1255:I 7.95482e-05
42 *1462:D *1293:A2 0.000254748
43 *1464:D *1293:A2 0.00028269
44 *1464:D *344:60 0.000124809
45 *1465:RN *1293:A2 0
46 *1466:D *344:27 0
47 *1466:D *344:56 3.74436e-06
48 *1466:D *344:60 0
49 *1466:CLK *344:27 1.34754e-05
50 *1516:I *1255:I 0.000208852
51 *1516:I *344:56 0.000337385
52 *1601:I *1375:A1 0.000544156
53 *1601:I *344:27 5.36914e-05
54 *4:30 *1255:I 4.78732e-05
55 *44:10 *1255:I 0.00102979
56 *101:16 *1285:B 0.000564081
57 *101:16 *344:8 0.000445794
58 *101:16 *344:27 3.23202e-05
59 *113:6 *1285:B 1.32185e-05
60 *131:12 *344:27 0.00024723
61 *208:457 *344:27 6.91116e-06
62 *225:20 *344:56 2.06289e-05
63 *225:20 *344:60 6.64107e-06
64 *228:16 *344:8 4.69809e-05
65 *272:125 *344:27 0.00031524
66 *288:76 *1293:A2 1.56603e-05
67 *341:14 *1293:A2 5.43176e-05
68 *341:14 *344:60 2.65622e-05
*RES
1 *1463:Q *344:8 6.164 
2 *344:8 *1285:B 6.06 
3 *344:8 *344:27 15.212 
4 *344:27 *344:31 4.812 
5 *344:31 *1255:I 19.012 
6 *344:31 *344:56 13.264 
7 *344:56 *344:60 5.852 
8 *344:60 *1293:A2 11.912 
9 *344:60 *1375:A1 10.976 
10 *344:56 *1408:A1 5.228 
11 *344:27 *1412:A1 9.312 
*END

*D_NET *345 0.0145942
*CONN
*I *1282:A1 I *D gf180mcu_fd_sc_mcu7t5v0__nand2_1
*I *1250:I I *D gf180mcu_fd_sc_mcu7t5v0__clkinv_1
*I *1299:A1 I *D gf180mcu_fd_sc_mcu7t5v0__oai21_1
*I *1293:A1 I *D gf180mcu_fd_sc_mcu7t5v0__or3_1
*I *1464:Q O *D gf180mcu_fd_sc_mcu7t5v0__dffrnq_1
*CAP
1 *1282:A1 0
2 *1250:I 0.00029991
3 *1299:A1 0.000210538
4 *1293:A1 0.000147374
5 *1464:Q 0
6 *345:40 0.000903267
7 *345:25 0.00182522
8 *345:4 0.0011587
9 *360:I *1250:I 1.76416e-05
10 *1251:I *345:40 0
11 *1282:A2 *345:40 7.87395e-06
12 *1293:A2 *1293:A1 7.79255e-05
13 *1299:A2 *1293:A1 1.823e-05
14 *1299:A2 *1299:A1 3.22108e-05
15 *1299:A2 *345:25 0.00150137
16 *1299:B *1299:A1 1.60428e-05
17 *1377:A2 *1293:A1 0.000127431
18 *1377:A2 *345:25 0.00054659
19 *1408:A3 *345:25 2.66768e-05
20 *1529:I *1250:I 0
21 *1529:I *1299:A1 7.38008e-06
22 *1529:I *345:25 0.000463061
23 *1529:I *345:40 0.0033147
24 *1541:I *345:40 0
25 *1569:I *1250:I 0.000237477
26 *1569:I *345:25 0.000270749
27 *1569:I *345:40 0.000895109
28 *4:30 *1293:A1 0.000138167
29 *4:30 *345:25 0.000677299
30 *98:12 *1250:I 0.00130912
31 *341:14 *1293:A1 0.000364104
*RES
1 *1464:Q *345:4 4.5 
2 *345:4 *1293:A1 15.58 
3 *345:4 *345:25 15.212 
4 *345:25 *1299:A1 10.144 
5 *345:25 *345:40 14.9 
6 *345:40 *1250:I 17.348 
7 *345:40 *1282:A1 4.5 
*END

*D_NET *346 0.00773103
*CONN
*I *1296:A1 I *D gf180mcu_fd_sc_mcu7t5v0__nor3_2
*I *1288:B I *D gf180mcu_fd_sc_mcu7t5v0__aoi21_1
*I *1465:Q O *D gf180mcu_fd_sc_mcu7t5v0__dffrnq_1
*CAP
1 *1296:A1 0.000244755
2 *1288:B 0.00118389
3 *1465:Q 0
4 *346:6 0.00142865
5 *1273:A1 *1296:A1 0.000129122
6 *1278:A2 *1296:A1 0.000354997
7 *1280:A1 *1288:B 9.32405e-06
8 *1280:A3 *1288:B 0.000297612
9 *1288:A2 *1288:B 7.47151e-05
10 *1296:A2 *1296:A1 4.07478e-05
11 *1296:A3 *1296:A1 0.000113027
12 *1376:A1 *1288:B 0.000117692
13 *1376:A1 *1296:A1 0.00011819
14 *1377:A2 *1288:B 0.00108973
15 *1377:A2 *1296:A1 0.000689739
16 *1465:D *1288:B 0.00027616
17 *1498:I *1288:B 0.00010924
18 *1571:I *1288:B 0.000306078
19 *44:10 *1288:B 0.000137301
20 *223:12 *1288:B 0.000235881
21 *223:16 *1288:B 0.000472507
22 *248:65 *1288:B 0.000197085
23 *248:65 *1296:A1 0.000104594
24 *305:12 *1288:B 0
*RES
1 *1465:Q *346:6 9 
2 *346:6 *1288:B 20.856 
3 *346:6 *1296:A1 12.952 
*END

*D_NET *347 0.00997308
*CONN
*I *1514:I I *D gf180mcu_fd_sc_mcu7t5v0__dlyb_1
*I *1466:Q O *D gf180mcu_fd_sc_mcu7t5v0__dffrnq_1
*CAP
1 *1514:I 0.00194716
2 *1466:Q 0.00194716
3 *361:I *1514:I 0.000219387
4 *1334:A1 *1514:I 0.000456851
5 *1335:A1 *1514:I 1.06295e-05
6 *1340:A2 *1514:I 0
7 *1344:A2 *1514:I 5.72435e-05
8 *1369:A2 *1514:I 0.000454141
9 *1374:B2 *1514:I 3.55699e-06
10 *1425:D *1514:I 6.51925e-06
11 *1444:RN *1514:I 0.000835055
12 *1532:I *1514:I 5.97024e-05
13 *146:30 *1514:I 0.000476383
14 *170:26 *1514:I 0.000865143
15 *248:89 *1514:I 0
16 *270:10 *1514:I 0
17 *312:14 *1514:I 3.58909e-05
18 *322:16 *1514:I 0.000198868
19 *322:18 *1514:I 0.000378868
20 *337:43 *1514:I 0.000595578
21 *338:12 *1514:I 9.84747e-05
22 *338:28 *1514:I 0.00132647
*RES
1 *1466:Q *1514:I 35.056 
*END
