*SPEF "ieee 1481-1999"
*DESIGN "sar_logic_diff"
*DATE "12:50:06 Friday August 07, 2026"
*VENDOR "The OpenROAD Project"
*PROGRAM "OpenROAD"
*VERSION "26Q1-1024-gdcf36133a"
*DESIGN_FLOW "NAME_SCOPE LOCAL" "PIN_CAP NONE"
*DIVIDER /
*DELIMITER :
*BUS_DELIMITER []
*T_UNIT 1 NS
*C_UNIT 1 PF
*R_UNIT 1 OHM
*L_UNIT 1 HENRY

*NAME_MAP
*3 busy
*4 clk
*5 cmp_clk
*6 cmp_rst
*7 comp_out
*8 dac_n[0]
*9 dac_n[1]
*10 dac_n[2]
*11 dac_n[3]
*12 dac_n[4]
*13 dac_n[5]
*14 dac_n[6]
*15 dac_n[7]
*16 dac_n[8]
*17 dac_n[9]
*18 dac_p[0]
*19 dac_p[1]
*20 dac_p[2]
*21 dac_p[3]
*22 dac_p[4]
*23 dac_p[5]
*24 dac_p[6]
*25 dac_p[7]
*26 dac_p[8]
*27 dac_p[9]
*28 dout[0]
*29 dout[1]
*30 dout[2]
*31 dout[3]
*32 dout[4]
*33 dout[5]
*34 dout[6]
*35 dout[7]
*36 dout[8]
*37 dout[9]
*38 dout_valid
*39 eoc
*40 rst_n
*41 samp_bot
*42 samp_top
*43 start
*44 _000_
*45 _001_
*46 _002_
*47 _003_
*48 _004_
*49 _005_
*50 _006_
*51 _007_
*52 _008_
*53 _009_
*54 _010_
*55 _011_
*56 _012_
*57 _013_
*58 _014_
*59 _015_
*60 _016_
*61 _017_
*62 _018_
*63 _019_
*64 _020_
*65 _021_
*66 _022_
*67 _023_
*68 _024_
*69 _025_
*70 _026_
*71 _027_
*72 _028_
*73 _029_
*74 _030_
*75 _031_
*76 _032_
*77 _033_
*78 _034_
*79 _035_
*80 _036_
*81 _037_
*82 _038_
*83 _039_
*84 _040_
*85 _041_
*86 _042_
*87 _043_
*88 _044_
*89 _045_
*90 _046_
*91 _047_
*92 _048_
*93 _049_
*94 _050_
*95 _051_
*96 _052_
*97 _053_
*98 _054_
*99 _055_
*100 _056_
*101 _057_
*102 _058_
*103 _059_
*104 _060_
*105 _061_
*106 _062_
*107 _063_
*108 _064_
*109 _065_
*110 _066_
*111 _067_
*112 _068_
*113 _069_
*114 _070_
*115 _071_
*116 _072_
*117 _073_
*118 _074_
*119 _075_
*120 _076_
*121 _077_
*122 _078_
*123 _079_
*124 _080_
*125 _081_
*126 _082_
*127 _083_
*128 _084_
*129 _085_
*130 _086_
*131 _087_
*132 _088_
*133 _089_
*134 _090_
*135 _091_
*136 _092_
*137 _093_
*138 _094_
*139 _095_
*140 _096_
*141 _097_
*142 _098_
*143 _099_
*144 _100_
*145 _101_
*146 _102_
*147 _103_
*148 _104_
*149 _105_
*150 _106_
*151 _107_
*152 _108_
*153 _109_
*154 _110_
*155 _111_
*156 _112_
*157 _113_
*158 _114_
*159 _115_
*160 _116_
*161 _117_
*162 _118_
*163 _119_
*164 _120_
*165 _121_
*166 _122_
*167 _123_
*168 _124_
*169 _125_
*170 _126_
*171 _127_
*172 _128_
*173 _129_
*174 _130_
*175 _131_
*176 _132_
*177 _133_
*178 _134_
*179 _135_
*180 _136_
*181 _137_
*182 _138_
*183 _139_
*184 _140_
*185 _141_
*186 _142_
*187 _143_
*188 _144_
*189 _145_
*190 _146_
*191 _147_
*192 _148_
*193 _149_
*194 _150_
*195 _151_
*196 _152_
*197 _153_
*198 _154_
*199 _155_
*200 _156_
*201 _157_
*202 _158_
*203 _159_
*204 bit_idx\[0\]
*205 bit_idx\[1\]
*206 bit_idx\[2\]
*207 bit_idx\[3\]
*208 clknet_0_clk
*209 clknet_4_0_0_clk
*210 clknet_4_10_0_clk
*211 clknet_4_11_0_clk
*212 clknet_4_12_0_clk
*213 clknet_4_13_0_clk
*214 clknet_4_14_0_clk
*215 clknet_4_15_0_clk
*216 clknet_4_1_0_clk
*217 clknet_4_2_0_clk
*218 clknet_4_3_0_clk
*219 clknet_4_4_0_clk
*220 clknet_4_5_0_clk
*221 clknet_4_6_0_clk
*222 clknet_4_7_0_clk
*223 clknet_4_8_0_clk
*224 clknet_4_9_0_clk
*225 cnt\[0\]
*226 cnt\[1\]
*227 cnt\[2\]
*228 cnt\[3\]
*229 net1
*230 net10
*231 net100
*232 net101
*233 net11
*234 net12
*235 net13
*236 net14
*237 net15
*238 net16
*239 net17
*240 net18
*241 net19
*242 net2
*243 net20
*244 net21
*245 net22
*246 net23
*247 net24
*248 net25
*249 net26
*250 net27
*251 net28
*252 net29
*253 net3
*254 net30
*255 net31
*256 net32
*257 net33
*258 net34
*259 net35
*260 net36
*261 net37
*262 net38
*263 net39
*264 net4
*265 net40
*266 net41
*267 net42
*268 net43
*269 net44
*270 net45
*271 net46
*272 net47
*273 net48
*274 net49
*275 net5
*276 net50
*277 net51
*278 net52
*279 net53
*280 net54
*281 net55
*282 net56
*283 net57
*284 net58
*285 net59
*286 net6
*287 net60
*288 net61
*289 net62
*290 net63
*291 net64
*292 net65
*293 net66
*294 net67
*295 net68
*296 net69
*297 net7
*298 net70
*299 net71
*300 net72
*301 net73
*302 net74
*303 net75
*304 net76
*305 net77
*306 net78
*307 net79
*308 net8
*309 net80
*310 net81
*311 net82
*312 net83
*313 net84
*314 net85
*315 net86
*316 net87
*317 net88
*318 net89
*319 net9
*320 net90
*321 net91
*322 net92
*323 net93
*324 net94
*325 net95
*326 net96
*327 net97
*328 net98
*329 net99
*330 sar_reg\[0\]
*331 sar_reg\[1\]
*332 sar_reg\[2\]
*333 sar_reg\[3\]
*334 sar_reg\[4\]
*335 sar_reg\[5\]
*336 sar_reg\[6\]
*337 sar_reg\[7\]
*338 sar_reg\[8\]
*339 sar_reg\[9\]
*340 state\[0\]
*341 state\[1\]
*342 state\[2\]
*343 state\[3\]
*344 state\[4\]
*345 state\[5\]
*346 state\[6\]
*347 state\[7\]
*348 ANTENNA__162__I
*349 ANTENNA__171__I
*350 ANTENNA__174__I
*351 ANTENNA__176__I
*352 ANTENNA__177__I
*353 ANTENNA__177__ZN
*354 ANTENNA__182__I
*355 ANTENNA__185__A1
*356 ANTENNA__186__A3
*357 ANTENNA__198__A1
*358 ANTENNA__200__A1
*359 ANTENNA__201__ZN
*360 ANTENNA__203__A1
*361 ANTENNA__205__A1
*362 ANTENNA__208__A2
*363 ANTENNA__209__A2
*364 ANTENNA__218__A2
*365 ANTENNA__223__A2
*366 ANTENNA__228__A2
*367 ANTENNA__233__A2
*368 ANTENNA__235__A1
*369 ANTENNA__237__A2
*370 ANTENNA__239__A3
*371 ANTENNA__241__A2
*372 ANTENNA__245__A2
*373 ANTENNA__248__A2
*374 ANTENNA__251__A1
*375 ANTENNA__253__A2
*376 ANTENNA__260__A1
*377 ANTENNA__260__A2
*378 ANTENNA__260__ZN
*379 ANTENNA__262__B
*380 ANTENNA__263__A2
*381 ANTENNA__263__ZN
*382 ANTENNA__265__B
*383 ANTENNA__266__A1
*384 ANTENNA__266__A2
*385 ANTENNA__266__ZN
*386 ANTENNA__268__B
*387 ANTENNA__269__A1
*388 ANTENNA__269__A2
*389 ANTENNA__269__ZN
*390 ANTENNA__271__B
*391 ANTENNA__272__A2
*392 ANTENNA__275__A2
*393 ANTENNA__284__A1
*394 ANTENNA__285__A1
*395 ANTENNA__292__A1
*396 ANTENNA__309__A1
*397 ANTENNA__309__ZN
*398 ANTENNA__310__A2
*399 ANTENNA__314__A1
*400 ANTENNA__319__A2
*401 ANTENNA__340__RN
*402 ANTENNA__359__Q
*403 ANTENNA__359__RN
*404 ANTENNA__360__RN
*405 ANTENNA__361__Q
*406 ANTENNA__361__RN
*407 ANTENNA__362__Q
*408 ANTENNA__367__Q
*409 ANTENNA__370__RN
*410 ANTENNA__381__D
*411 ANTENNA_clkbuf_0_clk_I
*412 ANTENNA_clkbuf_0_clk_Z
*413 ANTENNA_clkbuf_4_0_0_clk_I
*414 ANTENNA_clkbuf_4_10_0_clk_I
*415 ANTENNA_clkbuf_4_11_0_clk_I
*416 ANTENNA_clkbuf_4_12_0_clk_I
*417 ANTENNA_clkbuf_4_13_0_clk_I
*418 ANTENNA_clkbuf_4_14_0_clk_I
*419 ANTENNA_clkbuf_4_15_0_clk_I
*420 ANTENNA_clkbuf_4_1_0_clk_I
*421 ANTENNA_clkbuf_4_2_0_clk_I
*422 ANTENNA_clkbuf_4_3_0_clk_I
*423 ANTENNA_clkbuf_4_4_0_clk_I
*424 ANTENNA_clkbuf_4_5_0_clk_I
*425 ANTENNA_clkbuf_4_6_0_clk_I
*426 ANTENNA_clkbuf_4_7_0_clk_I
*427 ANTENNA_clkbuf_4_8_0_clk_I
*428 ANTENNA_clkbuf_4_9_0_clk_I
*429 ANTENNA_fanout47_Z
*430 ANTENNA_fanout49_I
*431 ANTENNA_fanout49_Z
*432 ANTENNA_fanout50_Z
*433 ANTENNA_fanout57_I
*434 ANTENNA_fanout58_I
*435 ANTENNA_fanout59_Z
*436 ANTENNA_fanout62_Z
*437 ANTENNA_fanout63_Z
*438 ANTENNA_fanout97_I
*439 ANTENNA_fanout98_I
*440 ANTENNA_input1_I
*441 ANTENNA_input1_Z
*442 ANTENNA_input2_I
*443 ANTENNA_input3_I
*444 ANTENNA_load_slew69_I
*445 ANTENNA_load_slew69_Z
*446 ANTENNA_load_slew70_Z
*447 ANTENNA_output10_I
*448 ANTENNA_output17_I
*449 ANTENNA_output19_I
*450 ANTENNA_output20_I
*451 ANTENNA_output25_I
*452 FILLER_0_101
*453 FILLER_0_104
*454 FILLER_0_106
*455 FILLER_0_115
*456 FILLER_0_125
*457 FILLER_0_135
*458 FILLER_0_138
*459 FILLER_0_144
*460 FILLER_0_154
*461 FILLER_0_164
*462 FILLER_0_168
*463 FILLER_0_172
*464 FILLER_0_179
*465 FILLER_0_18
*466 FILLER_0_187
*467 FILLER_0_197
*468 FILLER_0_20
*469 FILLER_0_201
*470 FILLER_0_203
*471 FILLER_0_206
*472 FILLER_0_208
*473 FILLER_0_23
*474 FILLER_0_33
*475 FILLER_0_36
*476 FILLER_0_45
*477 FILLER_0_57
*478 FILLER_0_67
*479 FILLER_0_70
*480 FILLER_0_74
*481 FILLER_0_91
*482 FILLER_10_104
*483 FILLER_10_107
*484 FILLER_10_145
*485 FILLER_10_147
*486 FILLER_10_174
*487 FILLER_10_177
*488 FILLER_10_180
*489 FILLER_10_182
*490 FILLER_10_34
*491 FILLER_10_37
*492 FILLER_10_47
*493 FILLER_10_59
*494 FILLER_10_6
*495 FILLER_11_100
*496 FILLER_11_139
*497 FILLER_11_142
*498 FILLER_11_145
*499 FILLER_11_147
*500 FILLER_11_156
*501 FILLER_11_194
*502 FILLER_11_198
*503 FILLER_11_2
*504 FILLER_11_200
*505 FILLER_11_209
*506 FILLER_11_212
*507 FILLER_11_215
*508 FILLER_11_41
*509 FILLER_11_5
*510 FILLER_11_53
*511 FILLER_11_69
*512 FILLER_11_72
*513 FILLER_11_81
*514 FILLER_11_87
*515 FILLER_11_91
*516 FILLER_12_102
*517 FILLER_12_104
*518 FILLER_12_107
*519 FILLER_12_145
*520 FILLER_12_16
*521 FILLER_12_164
*522 FILLER_12_174
*523 FILLER_12_177
*524 FILLER_12_180
*525 FILLER_12_182
*526 FILLER_12_34
*527 FILLER_12_37
*528 FILLER_12_6
*529 FILLER_12_64
*530 FILLER_13_124
*531 FILLER_13_126
*532 FILLER_13_129
*533 FILLER_13_139
*534 FILLER_13_142
*535 FILLER_13_145
*536 FILLER_13_149
*537 FILLER_13_159
*538 FILLER_13_195
*539 FILLER_13_199
*540 FILLER_13_2
*541 FILLER_13_209
*542 FILLER_13_212
*543 FILLER_13_215
*544 FILLER_13_37
*545 FILLER_13_55
*546 FILLER_13_69
*547 FILLER_13_72
*548 FILLER_13_83
*549 FILLER_13_87
*550 FILLER_14_10
*551 FILLER_14_104
*552 FILLER_14_107
*553 FILLER_14_118
*554 FILLER_14_12
*555 FILLER_14_122
*556 FILLER_14_146
*557 FILLER_14_156
*558 FILLER_14_174
*559 FILLER_14_177
*560 FILLER_14_180
*561 FILLER_14_182
*562 FILLER_14_19
*563 FILLER_14_191
*564 FILLER_14_209
*565 FILLER_14_29
*566 FILLER_14_31
*567 FILLER_14_34
*568 FILLER_14_37
*569 FILLER_14_39
*570 FILLER_14_48
*571 FILLER_14_58
*572 FILLER_14_68
*573 FILLER_14_86
*574 FILLER_15_139
*575 FILLER_15_142
*576 FILLER_15_158
*577 FILLER_15_194
*578 FILLER_15_198
*579 FILLER_15_2
*580 FILLER_15_200
*581 FILLER_15_209
*582 FILLER_15_212
*583 FILLER_15_215
*584 FILLER_15_37
*585 FILLER_15_39
*586 FILLER_15_42
*587 FILLER_15_50
*588 FILLER_15_62
*589 FILLER_15_69
*590 FILLER_15_72
*591 FILLER_15_86
*592 FILLER_15_88
*593 FILLER_16_10
*594 FILLER_16_104
*595 FILLER_16_107
*596 FILLER_16_116
*597 FILLER_16_120
*598 FILLER_16_124
*599 FILLER_16_128
*600 FILLER_16_145
*601 FILLER_16_155
*602 FILLER_16_157
*603 FILLER_16_17
*604 FILLER_16_173
*605 FILLER_16_177
*606 FILLER_16_180
*607 FILLER_16_182
*608 FILLER_16_28
*609 FILLER_16_34
*610 FILLER_16_37
*611 FILLER_16_40
*612 FILLER_16_50
*613 FILLER_16_68
*614 FILLER_16_86
*615 FILLER_16_90
*616 FILLER_16_94
*617 FILLER_17_113
*618 FILLER_17_120
*619 FILLER_17_139
*620 FILLER_17_142
*621 FILLER_17_151
*622 FILLER_17_155
*623 FILLER_17_172
*624 FILLER_17_2
*625 FILLER_17_200
*626 FILLER_17_207
*627 FILLER_17_209
*628 FILLER_17_212
*629 FILLER_17_215
*630 FILLER_17_37
*631 FILLER_17_55
*632 FILLER_17_57
*633 FILLER_17_66
*634 FILLER_17_72
*635 FILLER_17_76
*636 FILLER_18_10
*637 FILLER_18_104
*638 FILLER_18_107
*639 FILLER_18_116
*640 FILLER_18_118
*641 FILLER_18_136
*642 FILLER_18_138
*643 FILLER_18_14
*644 FILLER_18_141
*645 FILLER_18_159
*646 FILLER_18_169
*647 FILLER_18_171
*648 FILLER_18_174
*649 FILLER_18_177
*650 FILLER_18_180
*651 FILLER_18_182
*652 FILLER_18_24
*653 FILLER_18_34
*654 FILLER_18_37
*655 FILLER_18_45
*656 FILLER_18_55
*657 FILLER_18_59
*658 FILLER_18_63
*659 FILLER_18_91
*660 FILLER_18_93
*661 FILLER_18_96
*662 FILLER_19_10
*663 FILLER_19_121
*664 FILLER_19_129
*665 FILLER_19_139
*666 FILLER_19_14
*667 FILLER_19_142
*668 FILLER_19_145
*669 FILLER_19_183
*670 FILLER_19_191
*671 FILLER_19_209
*672 FILLER_19_212
*673 FILLER_19_215
*674 FILLER_19_24
*675 FILLER_19_30
*676 FILLER_19_66
*677 FILLER_19_72
*678 FILLER_19_75
*679 FILLER_19_77
*680 FILLER_1_111
*681 FILLER_1_130
*682 FILLER_1_139
*683 FILLER_1_142
*684 FILLER_1_151
*685 FILLER_1_16
*686 FILLER_1_189
*687 FILLER_1_193
*688 FILLER_1_199
*689 FILLER_1_209
*690 FILLER_1_212
*691 FILLER_1_215
*692 FILLER_1_26
*693 FILLER_1_32
*694 FILLER_1_6
*695 FILLER_1_68
*696 FILLER_1_72
*697 FILLER_1_75
*698 FILLER_20_10
*699 FILLER_20_104
*700 FILLER_20_107
*701 FILLER_20_127
*702 FILLER_20_129
*703 FILLER_20_138
*704 FILLER_20_16
*705 FILLER_20_174
*706 FILLER_20_177
*707 FILLER_20_180
*708 FILLER_20_182
*709 FILLER_20_24
*710 FILLER_20_34
*711 FILLER_20_37
*712 FILLER_20_42
*713 FILLER_20_52
*714 FILLER_20_62
*715 FILLER_20_98
*716 FILLER_21_10
*717 FILLER_21_126
*718 FILLER_21_132
*719 FILLER_21_139
*720 FILLER_21_142
*721 FILLER_21_152
*722 FILLER_21_18
*723 FILLER_21_188
*724 FILLER_21_192
*725 FILLER_21_196
*726 FILLER_21_200
*727 FILLER_21_209
*728 FILLER_21_212
*729 FILLER_21_215
*730 FILLER_21_27
*731 FILLER_21_63
*732 FILLER_21_69
*733 FILLER_21_72
*734 FILLER_21_87
*735 FILLER_21_91
*736 FILLER_22_104
*737 FILLER_22_107
*738 FILLER_22_116
*739 FILLER_22_124
*740 FILLER_22_134
*741 FILLER_22_141
*742 FILLER_22_145
*743 FILLER_22_157
*744 FILLER_22_174
*745 FILLER_22_177
*746 FILLER_22_180
*747 FILLER_22_182
*748 FILLER_22_34
*749 FILLER_22_37
*750 FILLER_22_64
*751 FILLER_22_7
*752 FILLER_22_82
*753 FILLER_22_92
*754 FILLER_23_10
*755 FILLER_23_104
*756 FILLER_23_111
*757 FILLER_23_139
*758 FILLER_23_142
*759 FILLER_23_144
*760 FILLER_23_150
*761 FILLER_23_154
*762 FILLER_23_156
*763 FILLER_23_172
*764 FILLER_23_200
*765 FILLER_23_204
*766 FILLER_23_208
*767 FILLER_23_212
*768 FILLER_23_215
*769 FILLER_23_46
*770 FILLER_23_54
*771 FILLER_23_64
*772 FILLER_23_66
*773 FILLER_23_69
*774 FILLER_23_72
*775 FILLER_23_85
*776 FILLER_24_10
*777 FILLER_24_104
*778 FILLER_24_107
*779 FILLER_24_117
*780 FILLER_24_127
*781 FILLER_24_14
*782 FILLER_24_163
*783 FILLER_24_165
*784 FILLER_24_174
*785 FILLER_24_177
*786 FILLER_24_180
*787 FILLER_24_182
*788 FILLER_24_24
*789 FILLER_24_34
*790 FILLER_24_37
*791 FILLER_24_64
*792 FILLER_24_66
*793 FILLER_24_69
*794 FILLER_24_97
*795 FILLER_25_129
*796 FILLER_25_138
*797 FILLER_25_142
*798 FILLER_25_151
*799 FILLER_25_179
*800 FILLER_25_183
*801 FILLER_25_191
*802 FILLER_25_2
*803 FILLER_25_209
*804 FILLER_25_212
*805 FILLER_25_215
*806 FILLER_25_45
*807 FILLER_25_47
*808 FILLER_25_57
*809 FILLER_25_69
*810 FILLER_25_72
*811 FILLER_25_79
*812 FILLER_25_9
*813 FILLER_25_93
*814 FILLER_26_100
*815 FILLER_26_104
*816 FILLER_26_107
*817 FILLER_26_145
*818 FILLER_26_149
*819 FILLER_26_161
*820 FILLER_26_165
*821 FILLER_26_174
*822 FILLER_26_177
*823 FILLER_26_180
*824 FILLER_26_184
*825 FILLER_26_188
*826 FILLER_26_19
*827 FILLER_26_192
*828 FILLER_26_2
*829 FILLER_26_209
*830 FILLER_26_29
*831 FILLER_26_33
*832 FILLER_26_37
*833 FILLER_26_72
*834 FILLER_26_85
*835 FILLER_26_87
*836 FILLER_26_9
*837 FILLER_27_129
*838 FILLER_27_136
*839 FILLER_27_142
*840 FILLER_27_145
*841 FILLER_27_153
*842 FILLER_27_160
*843 FILLER_27_164
*844 FILLER_27_168
*845 FILLER_27_172
*846 FILLER_27_176
*847 FILLER_27_180
*848 FILLER_27_199
*849 FILLER_27_209
*850 FILLER_27_212
*851 FILLER_27_216
*852 FILLER_27_38
*853 FILLER_27_47
*854 FILLER_27_51
*855 FILLER_27_69
*856 FILLER_27_72
*857 FILLER_27_81
*858 FILLER_27_93
*859 FILLER_28_10
*860 FILLER_28_103
*861 FILLER_28_107
*862 FILLER_28_110
*863 FILLER_28_112
*864 FILLER_28_147
*865 FILLER_28_151
*866 FILLER_28_155
*867 FILLER_28_159
*868 FILLER_28_16
*869 FILLER_28_163
*870 FILLER_28_167
*871 FILLER_28_177
*872 FILLER_28_193
*873 FILLER_28_34
*874 FILLER_28_37
*875 FILLER_28_45
*876 FILLER_28_65
*877 FILLER_28_83
*878 FILLER_28_95
*879 FILLER_29_103
*880 FILLER_29_117
*881 FILLER_29_124
*882 FILLER_29_131
*883 FILLER_29_137
*884 FILLER_29_139
*885 FILLER_29_142
*886 FILLER_29_147
*887 FILLER_29_151
*888 FILLER_29_155
*889 FILLER_29_159
*890 FILLER_29_199
*891 FILLER_29_2
*892 FILLER_29_209
*893 FILLER_29_212
*894 FILLER_29_215
*895 FILLER_29_37
*896 FILLER_29_47
*897 FILLER_29_51
*898 FILLER_29_53
*899 FILLER_29_60
*900 FILLER_29_69
*901 FILLER_29_72
*902 FILLER_29_83
*903 FILLER_29_91
*904 FILLER_29_99
*905 FILLER_2_104
*906 FILLER_2_107
*907 FILLER_2_142
*908 FILLER_2_152
*909 FILLER_2_156
*910 FILLER_2_17
*911 FILLER_2_172
*912 FILLER_2_174
*913 FILLER_2_177
*914 FILLER_2_212
*915 FILLER_2_216
*916 FILLER_2_27
*917 FILLER_2_34
*918 FILLER_2_37
*919 FILLER_2_46
*920 FILLER_2_50
*921 FILLER_2_7
*922 FILLER_2_88
*923 FILLER_2_92
*924 FILLER_30_10
*925 FILLER_30_101
*926 FILLER_30_104
*927 FILLER_30_107
*928 FILLER_30_125
*929 FILLER_30_132
*930 FILLER_30_138
*931 FILLER_30_143
*932 FILLER_30_149
*933 FILLER_30_165
*934 FILLER_30_169
*935 FILLER_30_172
*936 FILLER_30_180
*937 FILLER_30_184
*938 FILLER_30_186
*939 FILLER_30_20
*940 FILLER_30_203
*941 FILLER_30_206
*942 FILLER_30_208
*943 FILLER_30_30
*944 FILLER_30_36
*945 FILLER_30_45
*946 FILLER_30_53
*947 FILLER_30_55
*948 FILLER_30_62
*949 FILLER_30_64
*950 FILLER_30_67
*951 FILLER_30_70
*952 FILLER_30_72
*953 FILLER_30_81
*954 FILLER_30_91
*955 FILLER_30_99
*956 FILLER_3_10
*957 FILLER_3_107
*958 FILLER_3_109
*959 FILLER_3_112
*960 FILLER_3_130
*961 FILLER_3_138
*962 FILLER_3_142
*963 FILLER_3_177
*964 FILLER_3_194
*965 FILLER_3_198
*966 FILLER_3_20
*967 FILLER_3_200
*968 FILLER_3_209
*969 FILLER_3_212
*970 FILLER_3_215
*971 FILLER_3_22
*972 FILLER_3_29
*973 FILLER_3_65
*974 FILLER_3_69
*975 FILLER_3_72
*976 FILLER_4_10
*977 FILLER_4_104
*978 FILLER_4_107
*979 FILLER_4_124
*980 FILLER_4_130
*981 FILLER_4_166
*982 FILLER_4_174
*983 FILLER_4_177
*984 FILLER_4_186
*985 FILLER_4_196
*986 FILLER_4_20
*987 FILLER_4_200
*988 FILLER_4_209
*989 FILLER_4_30
*990 FILLER_4_34
*991 FILLER_4_37
*992 FILLER_4_72
*993 FILLER_4_76
*994 FILLER_4_86
*995 FILLER_4_94
*996 FILLER_5_107
*997 FILLER_5_137
*998 FILLER_5_139
*999 FILLER_5_142
*1000 FILLER_5_172
*1001 FILLER_5_182
*1002 FILLER_5_199
*1003 FILLER_5_209
*1004 FILLER_5_212
*1005 FILLER_5_215
*1006 FILLER_5_44
*1007 FILLER_5_51
*1008 FILLER_5_69
*1009 FILLER_5_72
*1010 FILLER_5_8
*1011 FILLER_6_10
*1012 FILLER_6_102
*1013 FILLER_6_104
*1014 FILLER_6_107
*1015 FILLER_6_114
*1016 FILLER_6_139
*1017 FILLER_6_14
*1018 FILLER_6_151
*1019 FILLER_6_161
*1020 FILLER_6_171
*1021 FILLER_6_177
*1022 FILLER_6_215
*1023 FILLER_6_24
*1024 FILLER_6_34
*1025 FILLER_6_37
*1026 FILLER_6_64
*1027 FILLER_7_105
*1028 FILLER_7_107
*1029 FILLER_7_124
*1030 FILLER_7_136
*1031 FILLER_7_142
*1032 FILLER_7_151
*1033 FILLER_7_161
*1034 FILLER_7_165
*1035 FILLER_7_192
*1036 FILLER_7_209
*1037 FILLER_7_212
*1038 FILLER_7_215
*1039 FILLER_7_43
*1040 FILLER_7_51
*1041 FILLER_7_69
*1042 FILLER_7_7
*1043 FILLER_7_72
*1044 FILLER_7_77
*1045 FILLER_8_100
*1046 FILLER_8_104
*1047 FILLER_8_107
*1048 FILLER_8_124
*1049 FILLER_8_149
*1050 FILLER_8_16
*1051 FILLER_8_168
*1052 FILLER_8_172
*1053 FILLER_8_174
*1054 FILLER_8_177
*1055 FILLER_8_186
*1056 FILLER_8_190
*1057 FILLER_8_199
*1058 FILLER_8_34
*1059 FILLER_8_37
*1060 FILLER_8_46
*1061 FILLER_8_48
*1062 FILLER_8_57
*1063 FILLER_8_6
*1064 FILLER_8_64
*1065 FILLER_9_112
*1066 FILLER_9_114
*1067 FILLER_9_133
*1068 FILLER_9_137
*1069 FILLER_9_139
*1070 FILLER_9_142
*1071 FILLER_9_151
*1072 FILLER_9_155
*1073 FILLER_9_157
*1074 FILLER_9_192
*1075 FILLER_9_2
*1076 FILLER_9_209
*1077 FILLER_9_212
*1078 FILLER_9_215
*1079 FILLER_9_41
*1080 FILLER_9_5
*1081 FILLER_9_59
*1082 FILLER_9_69
*1083 FILLER_9_72
*1084 FILLER_9_75
*1085 PHY_EDGE_ROW_0_Left_31
*1086 PHY_EDGE_ROW_0_Right_0
*1087 PHY_EDGE_ROW_10_Left_41
*1088 PHY_EDGE_ROW_10_Right_10
*1089 PHY_EDGE_ROW_11_Left_42
*1090 PHY_EDGE_ROW_11_Right_11
*1091 PHY_EDGE_ROW_12_Left_43
*1092 PHY_EDGE_ROW_12_Right_12
*1093 PHY_EDGE_ROW_13_Left_44
*1094 PHY_EDGE_ROW_13_Right_13
*1095 PHY_EDGE_ROW_14_Left_45
*1096 PHY_EDGE_ROW_14_Right_14
*1097 PHY_EDGE_ROW_15_Left_46
*1098 PHY_EDGE_ROW_15_Right_15
*1099 PHY_EDGE_ROW_16_Left_47
*1100 PHY_EDGE_ROW_16_Right_16
*1101 PHY_EDGE_ROW_17_Left_48
*1102 PHY_EDGE_ROW_17_Right_17
*1103 PHY_EDGE_ROW_18_Left_49
*1104 PHY_EDGE_ROW_18_Right_18
*1105 PHY_EDGE_ROW_19_Left_50
*1106 PHY_EDGE_ROW_19_Right_19
*1107 PHY_EDGE_ROW_1_Left_32
*1108 PHY_EDGE_ROW_1_Right_1
*1109 PHY_EDGE_ROW_20_Left_51
*1110 PHY_EDGE_ROW_20_Right_20
*1111 PHY_EDGE_ROW_21_Left_52
*1112 PHY_EDGE_ROW_21_Right_21
*1113 PHY_EDGE_ROW_22_Left_53
*1114 PHY_EDGE_ROW_22_Right_22
*1115 PHY_EDGE_ROW_23_Left_54
*1116 PHY_EDGE_ROW_23_Right_23
*1117 PHY_EDGE_ROW_24_Left_55
*1118 PHY_EDGE_ROW_24_Right_24
*1119 PHY_EDGE_ROW_25_Left_56
*1120 PHY_EDGE_ROW_25_Right_25
*1121 PHY_EDGE_ROW_26_Left_57
*1122 PHY_EDGE_ROW_26_Right_26
*1123 PHY_EDGE_ROW_27_Left_58
*1124 PHY_EDGE_ROW_27_Right_27
*1125 PHY_EDGE_ROW_28_Left_59
*1126 PHY_EDGE_ROW_28_Right_28
*1127 PHY_EDGE_ROW_29_Left_60
*1128 PHY_EDGE_ROW_29_Right_29
*1129 PHY_EDGE_ROW_2_Left_33
*1130 PHY_EDGE_ROW_2_Right_2
*1131 PHY_EDGE_ROW_30_Left_61
*1132 PHY_EDGE_ROW_30_Right_30
*1133 PHY_EDGE_ROW_3_Left_34
*1134 PHY_EDGE_ROW_3_Right_3
*1135 PHY_EDGE_ROW_4_Left_35
*1136 PHY_EDGE_ROW_4_Right_4
*1137 PHY_EDGE_ROW_5_Left_36
*1138 PHY_EDGE_ROW_5_Right_5
*1139 PHY_EDGE_ROW_6_Left_37
*1140 PHY_EDGE_ROW_6_Right_6
*1141 PHY_EDGE_ROW_7_Left_38
*1142 PHY_EDGE_ROW_7_Right_7
*1143 PHY_EDGE_ROW_8_Left_39
*1144 PHY_EDGE_ROW_8_Right_8
*1145 PHY_EDGE_ROW_9_Left_40
*1146 PHY_EDGE_ROW_9_Right_9
*1147 TAP_TAPCELL_ROW_0_62
*1148 TAP_TAPCELL_ROW_0_63
*1149 TAP_TAPCELL_ROW_0_64
*1150 TAP_TAPCELL_ROW_0_65
*1151 TAP_TAPCELL_ROW_0_66
*1152 TAP_TAPCELL_ROW_0_67
*1153 TAP_TAPCELL_ROW_10_95
*1154 TAP_TAPCELL_ROW_10_96
*1155 TAP_TAPCELL_ROW_10_97
*1156 TAP_TAPCELL_ROW_11_100
*1157 TAP_TAPCELL_ROW_11_98
*1158 TAP_TAPCELL_ROW_11_99
*1159 TAP_TAPCELL_ROW_12_101
*1160 TAP_TAPCELL_ROW_12_102
*1161 TAP_TAPCELL_ROW_12_103
*1162 TAP_TAPCELL_ROW_13_104
*1163 TAP_TAPCELL_ROW_13_105
*1164 TAP_TAPCELL_ROW_13_106
*1165 TAP_TAPCELL_ROW_14_107
*1166 TAP_TAPCELL_ROW_14_108
*1167 TAP_TAPCELL_ROW_14_109
*1168 TAP_TAPCELL_ROW_15_110
*1169 TAP_TAPCELL_ROW_15_111
*1170 TAP_TAPCELL_ROW_15_112
*1171 TAP_TAPCELL_ROW_16_113
*1172 TAP_TAPCELL_ROW_16_114
*1173 TAP_TAPCELL_ROW_16_115
*1174 TAP_TAPCELL_ROW_17_116
*1175 TAP_TAPCELL_ROW_17_117
*1176 TAP_TAPCELL_ROW_17_118
*1177 TAP_TAPCELL_ROW_18_119
*1178 TAP_TAPCELL_ROW_18_120
*1179 TAP_TAPCELL_ROW_18_121
*1180 TAP_TAPCELL_ROW_19_122
*1181 TAP_TAPCELL_ROW_19_123
*1182 TAP_TAPCELL_ROW_19_124
*1183 TAP_TAPCELL_ROW_1_68
*1184 TAP_TAPCELL_ROW_1_69
*1185 TAP_TAPCELL_ROW_1_70
*1186 TAP_TAPCELL_ROW_20_125
*1187 TAP_TAPCELL_ROW_20_126
*1188 TAP_TAPCELL_ROW_20_127
*1189 TAP_TAPCELL_ROW_21_128
*1190 TAP_TAPCELL_ROW_21_129
*1191 TAP_TAPCELL_ROW_21_130
*1192 TAP_TAPCELL_ROW_22_131
*1193 TAP_TAPCELL_ROW_22_132
*1194 TAP_TAPCELL_ROW_22_133
*1195 TAP_TAPCELL_ROW_23_134
*1196 TAP_TAPCELL_ROW_23_135
*1197 TAP_TAPCELL_ROW_23_136
*1198 TAP_TAPCELL_ROW_24_137
*1199 TAP_TAPCELL_ROW_24_138
*1200 TAP_TAPCELL_ROW_24_139
*1201 TAP_TAPCELL_ROW_25_140
*1202 TAP_TAPCELL_ROW_25_141
*1203 TAP_TAPCELL_ROW_25_142
*1204 TAP_TAPCELL_ROW_26_143
*1205 TAP_TAPCELL_ROW_26_144
*1206 TAP_TAPCELL_ROW_26_145
*1207 TAP_TAPCELL_ROW_27_146
*1208 TAP_TAPCELL_ROW_27_147
*1209 TAP_TAPCELL_ROW_27_148
*1210 TAP_TAPCELL_ROW_28_149
*1211 TAP_TAPCELL_ROW_28_150
*1212 TAP_TAPCELL_ROW_28_151
*1213 TAP_TAPCELL_ROW_29_152
*1214 TAP_TAPCELL_ROW_29_153
*1215 TAP_TAPCELL_ROW_29_154
*1216 TAP_TAPCELL_ROW_2_71
*1217 TAP_TAPCELL_ROW_2_72
*1218 TAP_TAPCELL_ROW_2_73
*1219 TAP_TAPCELL_ROW_30_155
*1220 TAP_TAPCELL_ROW_30_156
*1221 TAP_TAPCELL_ROW_30_157
*1222 TAP_TAPCELL_ROW_30_158
*1223 TAP_TAPCELL_ROW_30_159
*1224 TAP_TAPCELL_ROW_30_160
*1225 TAP_TAPCELL_ROW_3_74
*1226 TAP_TAPCELL_ROW_3_75
*1227 TAP_TAPCELL_ROW_3_76
*1228 TAP_TAPCELL_ROW_4_77
*1229 TAP_TAPCELL_ROW_4_78
*1230 TAP_TAPCELL_ROW_4_79
*1231 TAP_TAPCELL_ROW_5_80
*1232 TAP_TAPCELL_ROW_5_81
*1233 TAP_TAPCELL_ROW_5_82
*1234 TAP_TAPCELL_ROW_6_83
*1235 TAP_TAPCELL_ROW_6_84
*1236 TAP_TAPCELL_ROW_6_85
*1237 TAP_TAPCELL_ROW_7_86
*1238 TAP_TAPCELL_ROW_7_87
*1239 TAP_TAPCELL_ROW_7_88
*1240 TAP_TAPCELL_ROW_8_89
*1241 TAP_TAPCELL_ROW_8_90
*1242 TAP_TAPCELL_ROW_8_91
*1243 TAP_TAPCELL_ROW_9_92
*1244 TAP_TAPCELL_ROW_9_93
*1245 TAP_TAPCELL_ROW_9_94
*1246 _160_
*1247 _161_
*1248 _162_
*1249 _163_
*1250 _164_
*1251 _165_
*1252 _166_
*1253 _167_
*1254 _168_
*1255 _169_
*1256 _170_
*1257 _171_
*1258 _172_
*1259 _173_
*1260 _174_
*1261 _175_
*1262 _176_
*1263 _177_
*1264 _178_
*1265 _179_
*1266 _180_
*1267 _181_
*1268 _182_
*1269 _183_
*1270 _184_
*1271 _185_
*1272 _186_
*1273 _187_
*1274 _188_
*1275 _189_
*1276 _190_
*1277 _191_
*1278 _192_
*1279 _193_
*1280 _194_
*1281 _195_
*1282 _196_
*1283 _197_
*1284 _198_
*1285 _199_
*1286 _200_
*1287 _201_
*1288 _202_
*1289 _203_
*1290 _204_
*1291 _205_
*1292 _206_
*1293 _207_
*1294 _208_
*1295 _209_
*1296 _210_
*1297 _211_
*1298 _212_
*1299 _213_
*1300 _214_
*1301 _215_
*1302 _216_
*1303 _217_
*1304 _218_
*1305 _219_
*1306 _220_
*1307 _221_
*1308 _222_
*1309 _223_
*1310 _224_
*1311 _225_
*1312 _226_
*1313 _227_
*1314 _228_
*1315 _229_
*1316 _230_
*1317 _231_
*1318 _232_
*1319 _233_
*1320 _234_
*1321 _235_
*1322 _236_
*1323 _237_
*1324 _238_
*1325 _239_
*1326 _240_
*1327 _241_
*1328 _242_
*1329 _243_
*1330 _244_
*1331 _245_
*1332 _246_
*1333 _247_
*1334 _248_
*1335 _249_
*1336 _250_
*1337 _251_
*1338 _252_
*1339 _253_
*1340 _254_
*1341 _255_
*1342 _256_
*1343 _257_
*1344 _258_
*1345 _259_
*1346 _260_
*1347 _261_
*1348 _262_
*1349 _263_
*1350 _264_
*1351 _265_
*1352 _266_
*1353 _267_
*1354 _268_
*1355 _269_
*1356 _270_
*1357 _271_
*1358 _272_
*1359 _273_
*1360 _274_
*1361 _275_
*1362 _276_
*1363 _277_
*1364 _278_
*1365 _279_
*1366 _280_
*1367 _281_
*1368 _282_
*1369 _283_
*1370 _284_
*1371 _285_
*1372 _286_
*1373 _287_
*1374 _288_
*1375 _289_
*1376 _290_
*1377 _291_
*1378 _292_
*1379 _293_
*1380 _294_
*1381 _295_
*1382 _296_
*1383 _297_
*1384 _298_
*1385 _299_
*1386 _300_
*1387 _301_
*1388 _302_
*1389 _303_
*1390 _304_
*1391 _305_
*1392 _306_
*1393 _307_
*1394 _308_
*1395 _309_
*1396 _310_
*1397 _311_
*1398 _312_
*1399 _313_
*1400 _314_
*1401 _315_
*1402 _316_
*1403 _317_
*1404 _318_
*1405 _319_
*1406 _320_
*1407 _321_
*1408 _322_
*1409 _323_
*1410 _324_
*1411 _325_
*1412 _326_
*1413 _327_
*1414 _328_
*1415 _329_
*1416 _330_
*1417 _331_
*1418 _332_
*1419 _333_
*1420 _334_
*1421 _335_
*1422 _336_
*1423 _337_
*1424 _338_
*1425 _339_
*1426 _340_
*1427 _341_
*1428 _342_
*1429 _343_
*1430 _344_
*1431 _345_
*1432 _346_
*1433 _347_
*1434 _348_
*1435 _349_
*1436 _350_
*1437 _351_
*1438 _352_
*1439 _353_
*1440 _354_
*1441 _355_
*1442 _356_
*1443 _357_
*1444 _358_
*1445 _359_
*1446 _360_
*1447 _361_
*1448 _362_
*1449 _363_
*1450 _364_
*1451 _365_
*1452 _366_
*1453 _367_
*1454 _368_
*1455 _369_
*1456 _370_
*1457 _371_
*1458 _372_
*1459 _373_
*1460 _374_
*1461 _375_
*1462 _376_
*1463 _377_
*1464 _378_
*1465 _379_
*1466 _380_
*1467 _381_
*1468 _382_
*1469 clkbuf_0_clk
*1470 clkbuf_4_0_0_clk
*1471 clkbuf_4_10_0_clk
*1472 clkbuf_4_11_0_clk
*1473 clkbuf_4_12_0_clk
*1474 clkbuf_4_13_0_clk
*1475 clkbuf_4_14_0_clk
*1476 clkbuf_4_15_0_clk
*1477 clkbuf_4_1_0_clk
*1478 clkbuf_4_2_0_clk
*1479 clkbuf_4_3_0_clk
*1480 clkbuf_4_4_0_clk
*1481 clkbuf_4_5_0_clk
*1482 clkbuf_4_6_0_clk
*1483 clkbuf_4_7_0_clk
*1484 clkbuf_4_8_0_clk
*1485 clkbuf_4_9_0_clk
*1486 clkload0
*1487 clkload1
*1488 clkload10
*1489 clkload11
*1490 clkload12
*1491 clkload13
*1492 clkload14
*1493 clkload2
*1494 clkload3
*1495 clkload4
*1496 clkload5
*1497 clkload6
*1498 clkload7
*1499 clkload8
*1500 clkload9
*1501 fanout44
*1502 fanout45
*1503 fanout47
*1504 fanout48
*1505 fanout49
*1506 fanout50
*1507 fanout51
*1508 fanout53
*1509 fanout54
*1510 fanout55
*1511 fanout56
*1512 fanout57
*1513 fanout58
*1514 fanout59
*1515 fanout60
*1516 fanout61
*1517 fanout62
*1518 fanout63
*1519 fanout64
*1520 fanout65
*1521 fanout66
*1522 fanout67
*1523 fanout68
*1524 fanout71
*1525 fanout72
*1526 fanout75
*1527 fanout78
*1528 fanout80
*1529 fanout82
*1530 fanout84
*1531 fanout87
*1532 fanout89
*1533 fanout91
*1534 fanout94
*1535 fanout96
*1536 fanout97
*1537 fanout98
*1538 hold99
*1539 input1
*1540 input2
*1541 input3
*1542 load_slew100
*1543 load_slew101
*1544 load_slew43
*1545 load_slew46
*1546 load_slew52
*1547 load_slew69
*1548 load_slew70
*1549 load_slew73
*1550 load_slew74
*1551 load_slew76
*1552 load_slew77
*1553 load_slew79
*1554 load_slew81
*1555 load_slew85
*1556 load_slew86
*1557 load_slew88
*1558 load_slew90
*1559 load_slew92
*1560 load_slew93
*1561 load_slew95
*1562 max_cap41
*1563 max_cap42
*1564 output10
*1565 output11
*1566 output12
*1567 output13
*1568 output14
*1569 output15
*1570 output16
*1571 output17
*1572 output18
*1573 output19
*1574 output20
*1575 output21
*1576 output22
*1577 output23
*1578 output24
*1579 output25
*1580 output26
*1581 output27
*1582 output28
*1583 output29
*1584 output30
*1585 output31
*1586 output32
*1587 output33
*1588 output34
*1589 output35
*1590 output36
*1591 output37
*1592 output38
*1593 output39
*1594 output4
*1595 output40
*1596 output5
*1597 output6
*1598 output7
*1599 output8
*1600 output9
*1601 wire83

*PORTS
busy O
clk I
cmp_clk O
cmp_rst O
comp_out I
dac_n[0] O
dac_n[1] O
dac_n[2] O
dac_n[3] O
dac_n[4] O
dac_n[5] O
dac_n[6] O
dac_n[7] O
dac_n[8] O
dac_n[9] O
dac_p[0] O
dac_p[1] O
dac_p[2] O
dac_p[3] O
dac_p[4] O
dac_p[5] O
dac_p[6] O
dac_p[7] O
dac_p[8] O
dac_p[9] O
dout[0] O
dout[1] O
dout[2] O
dout[3] O
dout[4] O
dout[5] O
dout[6] O
dout[7] O
dout[8] O
dout[9] O
dout_valid O
eoc O
rst_n I
samp_bot O
samp_top O
start I

*D_NET *3 0.00170477
*CONN
*P busy O
*I *1594:Z O *D gf180mcu_fd_sc_mcu7t5v0__buf_2
*CAP
1 busy 0.000851097
2 *1594:Z 0.000851097
3 busy *403:I 2.57058e-06
*RES
1 *1594:Z busy 9.706 
*END

*D_NET *4 0.0135572
*CONN
*P clk I
*I *411:I I *D gf180mcu_fd_sc_mcu7t5v0__antenna
*I *1469:I I *D gf180mcu_fd_sc_mcu7t5v0__clkbuf_16
*CAP
1 clk 0.00340194
2 *411:I 0
3 *1469:I 0.000612402
4 *4:30 0.00401434
5 *1469:I *1292:A1 2.22657e-05
6 *1469:I *1292:A2 0.000103524
7 *1469:I *1292:B1 2.02289e-05
8 *1469:I *1372:A2 0.000103699
9 *1469:I *1430:CLK 0
10 *1469:I *110:37 1.82078e-05
11 *1469:I *274:47 0.000528341
12 *1469:I *276:20 0.000149255
13 *1469:I *280:72 0.000113147
14 *1469:I *293:12 0.000196625
15 *1469:I *343:12 5.09739e-06
16 *4:30 cmp_clk 0
17 *4:30 *376:I 4.60395e-05
18 *4:30 *380:I 3.5555e-05
19 *4:30 *398:I 1.17331e-05
20 *4:30 *427:I 3.5548e-05
21 *4:30 *443:I 0.000136491
22 *4:30 *1252:I 0
23 *4:30 *1255:I 4.47078e-05
24 *4:30 *1275:A1 8.40847e-05
25 *4:30 *1276:A1 0.00025181
26 *4:30 *1293:A1 0.000124707
27 *4:30 *1299:A2 0.000156857
28 *4:30 *1377:A2 0.000601157
29 *4:30 *1457:D 0.000488042
30 *4:30 *1458:RN 1.75512e-05
31 *4:30 *1462:D 0.000368714
32 *4:30 *1569:I 0.000186024
33 *4:30 *1597:I 1.91917e-06
34 *4:30 *1601:I 0.000187333
35 *4:30 *208:371 5.21115e-05
36 *4:30 *208:385 0.00016664
37 *4:30 *208:397 0.000188354
38 *4:30 *224:12 0.000109454
39 *4:30 *224:19 1.3255e-05
40 *4:30 *231:16 1.31916e-06
41 *4:30 *231:22 9.33001e-05
42 *4:30 *275:10 9.32751e-05
43 *4:30 *288:20 5.89817e-05
44 *4:30 *307:18 1.26924e-05
45 *4:30 *311:6 8.71673e-05
46 *4:30 *345:25 0.000613339
*RES
1 clk *4:30 35.79 
2 *4:30 *1469:I 18.972 
3 *4:30 *411:I 4.5 
*END

*D_NET *5 0.00423977
*CONN
*P cmp_clk O
*I *1596:Z O *D gf180mcu_fd_sc_mcu7t5v0__buf_2
*CAP
1 cmp_clk 0.00203958
2 *1596:Z 0.00203958
3 cmp_clk cmp_rst 9.38035e-05
4 cmp_clk *1597:I 6.68164e-05
5 cmp_clk *307:18 0
6 *4:30 cmp_clk 0
*RES
1 *1596:Z cmp_clk 20.21 
*END

*D_NET *6 0.00390234
*CONN
*P cmp_rst O
*I *1597:Z O *D gf180mcu_fd_sc_mcu7t5v0__buf_2
*CAP
1 cmp_rst 0.00117242
2 *1597:Z 0.00117242
3 cmp_rst dac_n[9] 0
4 cmp_rst *1382:A2 8.59272e-06
5 cmp_rst *1457:D 0.000117832
6 cmp_rst *1569:I 0.00043222
7 cmp_rst *307:18 0.000905057
8 cmp_clk cmp_rst 9.38035e-05
*RES
1 *1597:Z cmp_rst 17.93 
*END

*D_NET *7 0.0278779
*CONN
*P comp_out I
*I *440:I I *D gf180mcu_fd_sc_mcu7t5v0__antenna
*I *1539:I I *D gf180mcu_fd_sc_mcu7t5v0__dlyb_1
*CAP
1 comp_out 0.000953688
2 *440:I 0
3 *1539:I 0
4 *7:28 0.0125118
5 *7:9 0.0134655
6 *7:9 samp_top 0
7 *7:28 *1260:I 0
8 *7:28 *1315:B 0.000116161
9 *7:28 *1354:A2 0
10 *7:28 *1594:I 0.000129492
11 *7:28 *166:26 0
12 *7:28 *239:18 0
13 *7:28 *269:44 0.000151508
14 *7:28 *269:65 0.000100475
15 *7:28 *276:114 0.00021384
16 *7:28 *289:38 0.00012836
17 *7:28 *323:16 0.000107092
*RES
1 comp_out *7:9 9.63 
2 *7:9 *1539:I 13.5 
3 *7:9 *7:28 46.7831 
4 *7:28 *440:I 13.5 
*END

*D_NET *8 0.00117577
*CONN
*P dac_n[0] O
*I *1598:Z O *D gf180mcu_fd_sc_mcu7t5v0__buf_2
*CAP
1 dac_n[0] 0.000497866
2 *1598:Z 0.000497866
3 dac_n[0] dac_n[1] 0
4 dac_n[0] dac_p[9] 0
5 dac_n[0] *1367:A1 0.000138428
6 dac_n[0] *235:22 3.48555e-05
7 dac_n[0] *248:10 6.74954e-06
*RES
1 *1598:Z dac_n[0] 11.698 
*END

*D_NET *9 0.000942308
*CONN
*P dac_n[1] O
*I *1599:Z O *D gf180mcu_fd_sc_mcu7t5v0__buf_2
*CAP
1 dac_n[1] 0.000463535
2 *1599:Z 0.000463535
3 dac_n[1] dac_p[0] 0
4 dac_n[1] *235:22 1.52387e-05
5 dac_n[0] dac_n[1] 0
*RES
1 *1599:Z dac_n[1] 11.318 
*END

*D_NET *10 0.00178735
*CONN
*P dac_n[2] O
*I *1600:Z O *D gf180mcu_fd_sc_mcu7t5v0__buf_2
*CAP
1 dac_n[2] 0.000594369
2 *1600:Z 0.000594369
3 dac_n[2] dac_n[3] 0
4 dac_n[2] dac_p[0] 0.000191513
5 dac_n[2] *1564:I 0.000251397
6 dac_n[2] *1571:I 1.04132e-05
7 dac_n[2] *1600:I 1.19393e-05
8 dac_n[2] *235:22 0.000133353
*RES
1 *1600:Z dac_n[2] 12.762 
*END

*D_NET *11 0.00105185
*CONN
*P dac_n[3] O
*I *1564:Z O *D gf180mcu_fd_sc_mcu7t5v0__buf_2
*CAP
1 dac_n[3] 0.000481841
2 *1564:Z 0.000481841
3 dac_n[3] dac_n[4] 0
4 dac_n[3] *1367:A1 8.55327e-05
5 dac_n[3] *1367:A2 2.63626e-06
6 dac_n[2] dac_n[3] 0
*RES
1 *1564:Z dac_n[3] 11.546 
*END

*D_NET *12 0.00125002
*CONN
*P dac_n[4] O
*I *1565:Z O *D gf180mcu_fd_sc_mcu7t5v0__buf_2
*CAP
1 dac_n[4] 0.00055639
2 *1565:Z 0.00055639
3 dac_n[4] dac_n[5] 0
4 dac_n[4] *1566:I 0.000137243
5 dac_n[3] dac_n[4] 0
*RES
1 *1565:Z dac_n[4] 12.154 
*END

*D_NET *13 0.00143964
*CONN
*P dac_n[5] O
*I *1566:Z O *D gf180mcu_fd_sc_mcu7t5v0__buf_2
*CAP
1 dac_n[5] 0.000642613
2 *1566:Z 0.000642613
3 dac_n[5] dac_n[6] 0
4 dac_n[5] *1566:I 3.48666e-05
5 dac_n[5] *210:23 6.10753e-05
6 dac_n[5] *235:22 5.84691e-05
7 dac_n[4] dac_n[5] 0
*RES
1 *1566:Z dac_n[5] 12.458 
*END

*D_NET *14 0.00289172
*CONN
*P dac_n[6] O
*I *1567:Z O *D gf180mcu_fd_sc_mcu7t5v0__buf_2
*CAP
1 dac_n[6] 0.000808146
2 *1567:Z 0.000808146
3 dac_n[6] dac_n[7] 2.6693e-05
4 dac_n[6] *1396:A2 3.07734e-05
5 dac_n[6] *1457:D 0.000371767
6 dac_n[6] *1458:CLK 0.000165369
7 dac_n[6] *1566:I 0
8 dac_n[6] *210:23 0.000493247
9 dac_n[6] *235:22 2.78382e-05
10 dac_n[6] *296:10 0.000158394
11 dac_n[6] *298:76 1.34641e-06
12 dac_n[5] dac_n[6] 0
*RES
1 *1567:Z dac_n[6] 15.27 
*END

*D_NET *15 0.00358342
*CONN
*P dac_n[7] O
*I *1568:Z O *D gf180mcu_fd_sc_mcu7t5v0__buf_2
*CAP
1 dac_n[7] 0.000889651
2 *1568:Z 0.000889651
3 dac_n[7] dac_n[8] 5.09899e-05
4 dac_n[7] *1382:A2 0
5 dac_n[7] *1457:D 0.00120052
6 dac_n[7] *1458:D 0.000109197
7 dac_n[7] *235:22 0.000206434
8 dac_n[7] *296:10 0.000159742
9 dac_n[7] *298:76 5.05374e-05
10 dac_n[6] dac_n[7] 2.6693e-05
*RES
1 *1568:Z dac_n[7] 16.41 
*END

*D_NET *16 0.00283537
*CONN
*P dac_n[8] O
*I *1569:Z O *D gf180mcu_fd_sc_mcu7t5v0__buf_2
*CAP
1 dac_n[8] 0.0010552
2 *1569:Z 0.0010552
3 dac_n[8] dac_n[9] 0
4 dac_n[8] *1382:A2 0.000171142
5 dac_n[8] *1458:D 0.000502843
6 dac_n[7] dac_n[8] 5.09899e-05
*RES
1 *1569:Z dac_n[8] 15.118 
*END

*D_NET *17 0.00274661
*CONN
*P dac_n[9] O
*I *1570:Z O *D gf180mcu_fd_sc_mcu7t5v0__buf_2
*CAP
1 dac_n[9] 0.00108411
2 *1570:Z 0.00108411
3 dac_n[9] *1252:I 0
4 dac_n[9] *1457:D 8.4259e-05
5 dac_n[9] *1458:RN 0.000251848
6 dac_n[9] *1460:RN 4.83197e-05
7 dac_n[9] *1570:I 0.00018407
8 dac_n[9] *307:18 9.88736e-06
9 cmp_rst dac_n[9] 0
10 dac_n[8] dac_n[9] 0
*RES
1 *1570:Z dac_n[9] 15.802 
*END

*D_NET *18 0.0076972
*CONN
*P dac_p[0] O
*I *1571:Z O *D gf180mcu_fd_sc_mcu7t5v0__buf_2
*CAP
1 dac_p[0] 0.00364899
2 *1571:Z 0.00364899
3 dac_p[0] dac_p[1] 0
4 dac_p[0] *235:22 0.000207717
5 dac_n[1] dac_p[0] 0
6 dac_n[2] dac_p[0] 0.000191513
*RES
1 *1571:Z dac_p[0] 38.254 
*END

*D_NET *19 0.00798317
*CONN
*P dac_p[1] O
*I *1572:Z O *D gf180mcu_fd_sc_mcu7t5v0__buf_2
*CAP
1 dac_p[1] 0.00251434
2 *1572:Z 0.00251434
3 dac_p[1] dac_p[2] 0
4 dac_p[1] dac_p[4] 5.04399e-06
5 dac_p[1] dac_p[5] 0.000679293
6 dac_p[1] dac_p[6] 0
7 dac_p[1] *447:I 0.000630754
8 dac_p[1] *1266:I 4.96184e-05
9 dac_p[1] *1360:A1 9.97113e-05
10 dac_p[1] *1364:A2 0.000232673
11 dac_p[1] *1398:I1 8.55327e-05
12 dac_p[1] *1450:D 0.000189259
13 dac_p[1] *1470:I 1.15312e-05
14 dac_p[1] *1478:I 0.000104143
15 dac_p[1] *208:21 4.50074e-05
16 dac_p[1] *208:23 9.44743e-05
17 dac_p[1] *235:22 0.000169274
18 dac_p[1] *246:14 0.000128775
19 dac_p[1] *272:31 0.000200879
20 dac_p[1] *272:46 0.000137304
21 dac_p[1] *272:59 1.09688e-05
22 dac_p[1] *273:61 1.36915e-05
23 dac_p[1] *281:10 6.65506e-05
24 dac_p[0] dac_p[1] 0
*RES
1 *1572:Z dac_p[1] 35.29 
*END

*D_NET *20 0.00726194
*CONN
*P dac_p[2] O
*I *1573:Z O *D gf180mcu_fd_sc_mcu7t5v0__buf_2
*CAP
1 dac_p[2] 0.00100629
2 *1573:Z 0.00100629
3 dac_p[2] dac_p[3] 0
4 dac_p[2] dac_p[7] 0
5 dac_p[2] *1262:I 0.00023882
6 dac_p[2] *1396:A1 0
7 dac_p[2] *1426:D 0.00104367
8 dac_p[2] *1456:D 0.000173025
9 dac_p[2] *94:16 0.00185423
10 dac_p[2] *120:18 0.00153932
11 dac_p[2] *241:6 0.0004003
12 dac_p[1] dac_p[2] 0
*RES
1 *1573:Z dac_p[2] 20.058 
*END

*D_NET *21 0.00454204
*CONN
*P dac_p[3] O
*I *1574:Z O *D gf180mcu_fd_sc_mcu7t5v0__buf_2
*CAP
1 dac_p[3] 0.00112157
2 *1574:Z 0.00112157
3 dac_p[3] dac_p[4] 0
4 dac_p[3] dac_p[7] 5.62385e-05
5 dac_p[3] *1246:I 1.2965e-05
6 dac_p[3] *1291:A2 1.2018e-05
7 dac_p[3] *1357:A2 9.96921e-05
8 dac_p[3] *1360:A2 0.000479508
9 dac_p[3] *1372:B 0.000116946
10 dac_p[3] *1487:I 0.000235347
11 dac_p[3] *1598:I 0.000196614
12 dac_p[3] *122:20 9.59222e-05
13 dac_p[3] *273:61 0
14 dac_p[3] *296:46 0.000993649
15 dac_p[2] dac_p[3] 0
*RES
1 *1574:Z dac_p[3] 17.474 
*END

*D_NET *22 0.00503407
*CONN
*P dac_p[4] O
*I *1575:Z O *D gf180mcu_fd_sc_mcu7t5v0__buf_2
*CAP
1 dac_p[4] 0.00105396
2 *1575:Z 0.00105396
3 dac_p[4] dac_p[5] 0
4 dac_p[4] *1266:I 9.93899e-05
5 dac_p[4] *1360:A2 3.81953e-05
6 dac_p[4] *1360:B 7.886e-05
7 dac_p[4] *1448:CLK 0.000757983
8 dac_p[4] *1449:D 0.000233902
9 dac_p[4] *1449:CLK 4.58352e-05
10 dac_p[4] *1487:I 0.000301608
11 dac_p[4] *1579:I 0.000119715
12 dac_p[4] *168:28 2.96977e-05
13 dac_p[4] *235:22 0.000263271
14 dac_p[4] *246:14 1.53123e-05
15 dac_p[4] *246:39 5.69709e-05
16 dac_p[4] *273:61 0.000417725
17 dac_p[4] *281:29 0.000318181
18 dac_p[4] *281:35 0.000144467
19 dac_p[1] dac_p[4] 5.04399e-06
20 dac_p[3] dac_p[4] 0
*RES
1 *1575:Z dac_p[4] 18.234 
*END

*D_NET *23 0.00446955
*CONN
*P dac_p[5] O
*I *1576:Z O *D gf180mcu_fd_sc_mcu7t5v0__buf_2
*CAP
1 dac_p[5] 0.00135366
2 *1576:Z 0.00135366
3 dac_p[5] dac_p[6] 0
4 dac_p[5] *447:I 0.000109322
5 dac_p[5] *1267:I 1.41342e-05
6 dac_p[5] *1450:D 0.000252371
7 dac_p[5] *1478:I 9.38722e-05
8 dac_p[5] *230:41 0.000182572
9 dac_p[5] *245:31 0.000118057
10 dac_p[5] *246:14 0.000289191
11 dac_p[5] *247:24 2.34202e-05
12 dac_p[1] dac_p[5] 0.000679293
13 dac_p[4] dac_p[5] 0
*RES
1 *1576:Z dac_p[5] 18.234 
*END

*D_NET *24 0.00655387
*CONN
*P dac_p[6] O
*I *1577:Z O *D gf180mcu_fd_sc_mcu7t5v0__buf_2
*CAP
1 dac_p[6] 0.00113606
2 *1577:Z 0.00113606
3 dac_p[6] dac_p[7] 0.000655659
4 dac_p[6] dac_p[8] 0.00178303
5 dac_p[6] *349:I 7.39173e-05
6 dac_p[6] *1246:I 0.000164594
7 dac_p[6] *1267:I 4.52539e-06
8 dac_p[6] *1364:A2 0.000793686
9 dac_p[6] *1366:B 0.00024749
10 dac_p[6] *1372:B 0.000147305
11 dac_p[6] *1600:I 0.000101285
12 dac_p[6] *94:16 8.55327e-05
13 dac_p[6] *235:22 0.000158887
14 dac_p[6] *273:61 6.58309e-05
15 dac_p[1] dac_p[6] 0
16 dac_p[5] dac_p[6] 0
*RES
1 *1577:Z dac_p[6] 20.818 
*END

*D_NET *25 0.00844221
*CONN
*P dac_p[7] O
*I *1578:Z O *D gf180mcu_fd_sc_mcu7t5v0__buf_2
*CAP
1 dac_p[7] 0.0013123
2 *1578:Z 0.0013123
3 dac_p[7] dac_p[8] 1.12959e-05
4 dac_p[7] *1246:I 0.000135047
5 dac_p[7] *1265:I 0
6 dac_p[7] *1364:A2 0.000663265
7 dac_p[7] *1366:B 0.00224111
8 dac_p[7] *1449:CLK 0.000794214
9 dac_p[7] *1451:CLK 0.000376901
10 dac_p[7] *1564:I 0.000143192
11 dac_p[7] *1579:I 0.000223822
12 dac_p[7] *94:16 0
13 dac_p[7] *217:17 0.000114204
14 dac_p[7] *247:24 0.000402657
15 dac_p[7] *249:12 0
16 dac_p[2] dac_p[7] 0
17 dac_p[3] dac_p[7] 5.62385e-05
18 dac_p[6] dac_p[7] 0.000655659
*RES
1 *1578:Z dac_p[7] 31.262 
*END

*D_NET *26 0.00733405
*CONN
*P dac_p[8] O
*I *1579:Z O *D gf180mcu_fd_sc_mcu7t5v0__buf_2
*CAP
1 dac_p[8] 0.000866449
2 *1579:Z 0.000866449
3 dac_p[8] dac_p[9] 0
4 dac_p[8] *1265:I 0.000132883
5 dac_p[8] *1366:B 0.00234165
6 dac_p[8] *1564:I 0.00053953
7 dac_p[8] *1566:I 0.00053953
8 dac_p[8] *235:22 1.90981e-05
9 dac_p[8] *247:24 0.000174077
10 dac_p[8] *249:12 6.0051e-05
11 dac_p[6] dac_p[8] 0.00178303
12 dac_p[7] dac_p[8] 1.12959e-05
*RES
1 *1579:Z dac_p[8] 20.134 
*END

*D_NET *27 0.00184034
*CONN
*P dac_p[9] O
*I *1580:Z O *D gf180mcu_fd_sc_mcu7t5v0__buf_2
*CAP
1 dac_p[9] 0.000540895
2 *1580:Z 0.000540895
3 dac_p[9] *1566:I 0.000379274
4 dac_p[9] *247:24 0.000379274
5 dac_n[0] dac_p[9] 0
6 dac_p[8] dac_p[9] 0
*RES
1 *1580:Z dac_p[9] 12.458 
*END

*D_NET *28 0.00152117
*CONN
*P dout[0] O
*I *1581:Z O *D gf180mcu_fd_sc_mcu7t5v0__buf_2
*CAP
1 dout[0] 0.000760586
2 *1581:Z 0.000760586
*RES
1 *1581:Z dout[0] 12.914 
*END

*D_NET *29 0.00185535
*CONN
*P dout[1] O
*I *1582:Z O *D gf180mcu_fd_sc_mcu7t5v0__buf_2
*CAP
1 dout[1] 0.000828985
2 *1582:Z 0.000828985
3 dout[1] *366:I 0
4 dout[1] *405:I 6.48981e-05
5 dout[1] *1581:I 8.38119e-05
6 dout[1] *285:51 8.32046e-06
7 dout[1] *314:6 2.88187e-05
8 dout[1] *314:16 1.15312e-05
*RES
1 *1582:Z dout[1] 13.674 
*END

*D_NET *30 0.00252475
*CONN
*P dout[2] O
*I *1583:Z O *D gf180mcu_fd_sc_mcu7t5v0__buf_2
*CAP
1 dout[2] 0.000913298
2 *1583:Z 0.000913298
3 dout[2] dout[3] 0.000317503
4 dout[2] *1419:RN 8.55242e-05
5 dout[2] *1555:I 4.1341e-05
6 dout[2] *1583:I 6.76345e-05
7 dout[2] *252:10 5.69226e-05
8 dout[2] *254:12 0
9 dout[2] *315:19 0.000129233
*RES
1 *1583:Z dout[2] 14.662 
*END

*D_NET *31 0.00382164
*CONN
*P dout[3] O
*I *1584:Z O *D gf180mcu_fd_sc_mcu7t5v0__buf_2
*CAP
1 dout[3] 0.0010919
2 *1584:Z 0.0010919
3 dout[3] *1389:I0 0.000202968
4 dout[3] *1419:RN 0.000680899
5 dout[3] *1530:I 0.000247628
6 dout[3] *1583:I 2.9378e-06
7 dout[3] *1584:I 0.000115422
8 dout[3] *232:18 6.88266e-05
9 dout[3] *285:51 1.66121e-06
10 dout[2] dout[3] 0.000317503
*RES
1 *1584:Z dout[3] 17.322 
*END

*D_NET *32 0.00244683
*CONN
*P dout[4] O
*I *1585:Z O *D gf180mcu_fd_sc_mcu7t5v0__buf_2
*CAP
1 dout[4] 0.000873615
2 *1585:Z 0.000873615
3 dout[4] dout[5] 9.26705e-05
4 dout[4] *1389:I0 3.56341e-05
5 dout[4] *1420:RN 5.72946e-05
6 dout[4] *1440:RN 9.34472e-05
7 dout[4] *1530:I 2.61359e-05
8 dout[4] *1557:I 6.52541e-06
9 dout[4] *232:16 0.000256044
10 dout[4] *285:27 2.88193e-05
11 dout[4] *285:33 0.000103026
*RES
1 *1585:Z dout[4] 14.966 
*END

*D_NET *33 0.00400063
*CONN
*P dout[5] O
*I *1586:Z O *D gf180mcu_fd_sc_mcu7t5v0__buf_2
*CAP
1 dout[5] 0.000997107
2 *1586:Z 0.000997107
3 dout[5] *373:I 0.000316486
4 dout[5] *441:I 0
5 dout[5] *1530:I 9.12534e-05
6 dout[5] *1559:I 0.000527294
7 dout[5] *232:16 0.000697508
8 dout[5] *257:8 0
9 dout[5] *283:8 3.89716e-05
10 dout[5] *285:27 1.36289e-05
11 dout[5] *323:18 0.000228607
12 dout[4] dout[5] 9.26705e-05
*RES
1 *1586:Z dout[5] 16.866 
*END

*D_NET *34 0.00473053
*CONN
*P dout[6] O
*I *1587:Z O *D gf180mcu_fd_sc_mcu7t5v0__buf_2
*CAP
1 dout[6] 0.00236527
2 *1587:Z 0.00236527
*RES
1 *1587:Z dout[6] 30.578 
*END

*D_NET *35 0.00277944
*CONN
*P dout[7] O
*I *1588:Z O *D gf180mcu_fd_sc_mcu7t5v0__buf_2
*CAP
1 dout[7] 0.000900054
2 *1588:Z 0.000900054
3 dout[7] *1393:I0 0.000172219
4 dout[7] *1423:RN 9.26705e-05
5 dout[7] *1560:I 8.55242e-05
6 dout[7] *1587:I 8.05819e-05
7 dout[7] *1588:I 5.26401e-05
8 dout[7] *326:10 0
9 dout[7] *326:23 0.000495697
*RES
1 *1588:Z dout[7] 15.346 
*END

*D_NET *36 0.00213904
*CONN
*P dout[8] O
*I *1589:Z O *D gf180mcu_fd_sc_mcu7t5v0__buf_2
*CAP
1 dout[8] 0.00101207
2 *1589:Z 0.00101207
3 dout[8] *1589:I 6.77492e-05
4 dout[8] *1590:I 4.71484e-05
*RES
1 *1589:Z dout[8] 14.89 
*END

*D_NET *37 0.00239544
*CONN
*P dout[9] O
*I *1590:Z O *D gf180mcu_fd_sc_mcu7t5v0__buf_2
*CAP
1 dout[9] 0.00112905
2 *1590:Z 0.00112905
3 dout[9] *442:I 2.40328e-06
4 dout[9] *1535:I 8.166e-05
5 dout[9] *1587:I 5.3266e-05
6 dout[9] *40:13 0
*RES
1 *1590:Z dout[9] 15.498 
*END

*D_NET *38 0.00200584
*CONN
*P dout_valid O
*I *1591:Z O *D gf180mcu_fd_sc_mcu7t5v0__buf_2
*CAP
1 dout_valid 0.00095386
2 *1591:Z 0.00095386
3 dout_valid *1315:B 5.3579e-05
4 dout_valid *1591:I 3.70205e-05
5 dout_valid *276:114 7.52381e-06
*RES
1 *1591:Z dout_valid 19.618 
*END

*D_NET *39 0.00199035
*CONN
*P eoc O
*I *1592:Z O *D gf180mcu_fd_sc_mcu7t5v0__buf_2
*CAP
1 eoc 0.00098682
2 *1592:Z 0.00098682
3 eoc *276:91 1.67138e-05
*RES
1 *1592:Z eoc 19.77 
*END

*D_NET *40 0.00351384
*CONN
*P rst_n I
*I *1540:I I *D gf180mcu_fd_sc_mcu7t5v0__dlyb_1
*I *442:I I *D gf180mcu_fd_sc_mcu7t5v0__antenna
*CAP
1 rst_n 0.00113921
2 *1540:I 0
3 *442:I 0.000412443
4 *40:13 0.00155166
5 *442:I *1535:I 0.000161264
6 *442:I *1587:I 8.95196e-05
7 *40:13 *1529:I 5.26941e-05
8 *40:13 *1535:I 0.00010465
9 dout[9] *442:I 2.40328e-06
10 dout[9] *40:13 0
*RES
1 rst_n *40:13 15.878 
2 *40:13 *442:I 16.54 
3 *40:13 *1540:I 4.5 
*END

*D_NET *41 0.00363564
*CONN
*P samp_bot O
*I *1593:Z O *D gf180mcu_fd_sc_mcu7t5v0__buf_2
*CAP
1 samp_bot 0.00110176
2 *1593:Z 0.00110176
3 samp_bot samp_top 0
4 samp_bot *1262:I 0
5 samp_bot *1351:A2 0.000397613
6 samp_bot *1364:A1 0
7 samp_bot *1445:D 0.00089497
8 samp_bot *1600:I 2.41598e-05
9 samp_bot *265:42 5.86822e-05
10 samp_bot *296:61 5.66946e-05
*RES
1 *1593:Z samp_bot 17.322 
*END

*D_NET *42 0.00187909
*CONN
*P samp_top O
*I *1595:Z O *D gf180mcu_fd_sc_mcu7t5v0__buf_2
*CAP
1 samp_top 0.000932273
2 *1595:Z 0.000932273
3 samp_top *1351:A2 1.45415e-05
4 samp_top *229:22 0
5 samp_bot samp_top 0
6 *7:9 samp_top 0
*RES
1 *1595:Z samp_top 13.978 
*END

*D_NET *43 0.00668532
*CONN
*P start I
*I *1541:I I *D gf180mcu_fd_sc_mcu7t5v0__dlyb_1
*I *443:I I *D gf180mcu_fd_sc_mcu7t5v0__antenna
*CAP
1 start 0.000928741
2 *1541:I 0.000135899
3 *443:I 0.000294026
4 *43:11 0.00135867
5 *443:I *1276:A1 8.87222e-05
6 *443:I *1299:A2 0.000660734
7 *443:I *1299:B 0.000144194
8 *443:I *1301:B1 0.00151674
9 *443:I *1410:A2 8.53118e-06
10 *443:I *1569:I 0.000900625
11 *443:I *98:12 0.000107914
12 *1541:I *1282:A2 2.57058e-06
13 *1541:I *1569:I 0.000201562
14 *1541:I *98:12 0.000199908
15 *1541:I *345:40 0
16 *4:30 *443:I 0.000136491
*RES
1 start *43:11 10.162 
2 *43:11 *443:I 15.916 
3 *43:11 *1541:I 10.52 
*END

*D_NET *44 0.00721558
*CONN
*I *1377:A1 I *D gf180mcu_fd_sc_mcu7t5v0__nor3_1
*I *1461:D I *D gf180mcu_fd_sc_mcu7t5v0__dffrnq_1
*I *1278:ZN O *D gf180mcu_fd_sc_mcu7t5v0__nor3_1
*CAP
1 *1377:A1 8.74223e-05
2 *1461:D 0.000130831
3 *1278:ZN 0.000523708
4 *44:10 0.000741961
5 *1377:A1 *1280:A3 1.3758e-05
6 *1377:A1 *1377:A2 8.18373e-05
7 *1377:A1 *1383:A3 0.000414869
8 *1377:A1 *1542:I 1.92141e-05
9 *1461:D *1280:A3 0.000432994
10 *1461:D *1464:CLK 0.000349092
11 *1461:D *126:10 5.27305e-05
12 *1461:D *223:12 0.000379283
13 *1461:D *305:12 0.000735512
14 *44:10 *1255:I 0.000780317
15 *44:10 *1278:A1 3.08902e-05
16 *44:10 *1278:A2 0.00128397
17 *44:10 *1280:A3 0.000181432
18 *44:10 *1288:B 0.00013089
19 *44:10 *1296:A3 0.000196316
20 *44:10 *1376:A1 0.000481665
21 *44:10 *1407:C 2.91579e-05
22 *44:10 *1601:I 8.56042e-06
23 *44:10 *113:16 1.15275e-05
24 *44:10 *126:10 0.000117644
25 *44:10 *127:12 0
*RES
1 *1278:ZN *44:10 15.688 
2 *44:10 *1461:D 12.04 
3 *44:10 *1377:A1 10.14 
*END

*D_NET *45 0.00692735
*CONN
*I *1462:D I *D gf180mcu_fd_sc_mcu7t5v0__dffrnq_1
*I *1276:ZN O *D gf180mcu_fd_sc_mcu7t5v0__nor2_1
*CAP
1 *1462:D 0.00139501
2 *1276:ZN 0.00139501
3 *1462:D *376:I 0.000126174
4 *1462:D *380:I 8.94407e-05
5 *1462:D *1255:I 6.7274e-05
6 *1462:D *1283:A1 0.000553813
7 *1462:D *1293:A2 0.000192094
8 *1462:D *1299:A2 0.000290189
9 *1462:D *1376:A1 0
10 *1462:D *1382:A1 0.00108098
11 *1462:D *1384:A1 0.000181174
12 *1462:D *1464:D 0.000159416
13 *1462:D *1464:RN 0.000358107
14 *1462:D *1465:RN 0
15 *1462:D *1471:I 0
16 *1462:D *1484:I 0.000298167
17 *1462:D *1553:I 6.54393e-05
18 *1462:D *100:54 2.293e-05
19 *1462:D *116:20 1.3758e-05
20 *1462:D *224:19 9.88736e-06
21 *1462:D *288:20 0.000205828
22 *1462:D *288:76 2.04755e-05
23 *1462:D *306:8 3.34722e-05
24 *4:30 *1462:D 0.000368714
*RES
1 *1276:ZN *1462:D 30.996 
*END

*D_NET *46 0.00454145
*CONN
*I *1466:D I *D gf180mcu_fd_sc_mcu7t5v0__dffrnq_1
*I *1273:ZN O *D gf180mcu_fd_sc_mcu7t5v0__nor2_1
*CAP
1 *1466:D 0.000681608
2 *1273:ZN 0.000681608
3 *1466:D *1298:A3 3.27801e-05
4 *1466:D *1299:B 6.78072e-05
5 *1466:D *1346:A1 6.65679e-05
6 *1466:D *1346:A2 0.000114918
7 *1466:D *1375:A2 0.000321478
8 *1466:D *1412:B1 1.2018e-05
9 *1466:D *1415:A2 0.000243569
10 *1466:D *1462:RN 2.17248e-05
11 *1466:D *1488:I 0.00011628
12 *1466:D *123:45 0.000419633
13 *1466:D *123:52 0.000409873
14 *1466:D *123:65 0.000407877
15 *1466:D *208:457 0.000267949
16 *1466:D *211:52 0.000608719
17 *1466:D *310:16 6.01487e-05
18 *1466:D *341:14 2.36611e-06
19 *1466:D *344:27 0
20 *1466:D *344:56 4.52788e-06
21 *1466:D *344:60 0
*RES
1 *1273:ZN *1466:D 25.372 
*END

*D_NET *47 0.02363
*CONN
*I *1459:D I *D gf180mcu_fd_sc_mcu7t5v0__dffsnq_1
*I *1396:A1 I *D gf180mcu_fd_sc_mcu7t5v0__nor2_1
*I *1291:Z O *D gf180mcu_fd_sc_mcu7t5v0__or2_1
*CAP
1 *1459:D 0.000400625
2 *1396:A1 0.00235951
3 *1291:Z 0.000542391
4 *47:8 0.00330253
5 *1396:A1 *1374:A1 0
6 *1396:A1 *1448:CLK 0
7 *1396:A1 *1566:I 0.000222834
8 *1396:A1 *1568:I 0.00106183
9 *1396:A1 *1570:I 0
10 *1396:A1 *1574:I 8.03759e-06
11 *1396:A1 *1575:I 0.00139015
12 *1396:A1 *1578:I 0.000245493
13 *1396:A1 *1600:I 0.0065664
14 *1396:A1 *109:24 0.000503339
15 *1396:A1 *120:18 0.00011403
16 *1396:A1 *233:22 0.00068985
17 *1396:A1 *243:21 6.60373e-05
18 *1396:A1 *248:16 0.00388717
19 *1396:A1 *308:22 0.000157623
20 *1459:D *1291:A2 8.43583e-05
21 *1459:D *1354:B 0.000461772
22 *1459:D *109:24 0.000186112
23 *1459:D *243:21 5.66215e-05
24 *1459:D *296:69 0.000275783
25 *47:8 *399:I 0.000734104
26 *47:8 *1291:A2 0.000307521
27 *47:8 *1426:D 0
28 *47:8 *1459:CLK 5.87561e-06
29 dac_p[2] *1396:A1 0
*RES
1 *1291:Z *47:8 13.028 
2 *47:8 *1396:A1 47.944 
3 *47:8 *1459:D 12.496 
*END

*D_NET *48 0.0105702
*CONN
*I *1460:D I *D gf180mcu_fd_sc_mcu7t5v0__dffrnq_1
*I *1289:ZN O *D gf180mcu_fd_sc_mcu7t5v0__nand2_1
*CAP
1 *1460:D 0.00153507
2 *1289:ZN 0.00153507
3 *1460:D *382:I 0.000771467
4 *1460:D *448:I 1.96827e-05
5 *1460:D *1274:A1 8.14359e-05
6 *1460:D *1289:A2 0.00382133
7 *1460:D *1432:D 0.000621108
8 *1460:D *1432:RN 8.55327e-05
9 *1460:D *1433:D 0.00017755
10 *1460:D *1464:D 3.60991e-05
11 *1460:D *99:12 0
12 *1460:D *296:116 0.00107856
13 *1460:D *305:8 0.00080725
*RES
1 *1289:ZN *1460:D 34.872 
*END

*D_NET *49 0.00233069
*CONN
*I *1463:D I *D gf180mcu_fd_sc_mcu7t5v0__dffrnq_1
*I *1286:ZN O *D gf180mcu_fd_sc_mcu7t5v0__nand2_1
*CAP
1 *1463:D 0.000671983
2 *1286:ZN 0.000671983
3 *1463:D *1342:B 0.000538392
4 *1463:D *1393:S 0
5 *1463:D *1444:CLK 0.000303605
6 *1463:D *1475:I 3.12307e-06
7 *1463:D *1492:I 2.9378e-06
8 *1463:D *113:6 0
9 *1463:D *274:108 1.33342e-06
10 *1463:D *276:192 0
11 *1463:D *339:12 0.000137329
*RES
1 *1286:ZN *1463:D 22.864 
*END

*D_NET *50 0.010595
*CONN
*I *1464:D I *D gf180mcu_fd_sc_mcu7t5v0__dffrnq_1
*I *1283:ZN O *D gf180mcu_fd_sc_mcu7t5v0__nand2_1
*CAP
1 *1464:D 0.00156778
2 *1283:ZN 0.00156778
3 *1464:D *381:I 0.000247724
4 *1464:D *1281:A1 0.000124179
5 *1464:D *1282:A2 7.83779e-05
6 *1464:D *1283:A1 0.00449109
7 *1464:D *1293:A2 0.000253979
8 *1464:D *1299:A2 2.2768e-05
9 *1464:D *1383:A1 5.71282e-05
10 *1464:D *1383:A3 0.00013063
11 *1464:D *1384:A1 0.000116726
12 *1464:D *1396:A2 5.54258e-05
13 *1464:D *1432:RN 1.87322e-05
14 *1464:D *1464:RN 0.00034896
15 *1464:D *100:54 7.40827e-05
16 *1464:D *126:28 0.000199473
17 *1464:D *170:30 0.000411899
18 *1464:D *198:26 0.000120322
19 *1464:D *225:8 1.97747e-05
20 *1464:D *225:14 0.000334621
21 *1464:D *225:20 2.13417e-05
22 *1464:D *341:14 1.98882e-05
23 *1464:D *344:60 0.000116764
24 *1460:D *1464:D 3.60991e-05
25 *1462:D *1464:D 0.000159416
*RES
1 *1283:ZN *1464:D 34.492 
*END

*D_NET *51 0.00145127
*CONN
*I *1434:D I *D gf180mcu_fd_sc_mcu7t5v0__dffrnq_1
*I *1301:ZN O *D gf180mcu_fd_sc_mcu7t5v0__aoi22_1
*CAP
1 *1434:D 0.000306512
2 *1301:ZN 0.000306512
3 *1434:D *1299:B 1.19401e-05
4 *1434:D *1301:A2 7.11102e-06
5 *1434:D *1301:B1 2.11862e-05
6 *1434:D *1433:D 0.000754722
7 *1434:D *1433:CLK 1.91917e-06
8 *1434:D *214:41 4.13692e-05
*RES
1 *1301:ZN *1434:D 11.584 
*END

*D_NET *52 0.00145062
*CONN
*I *1435:D I *D gf180mcu_fd_sc_mcu7t5v0__dffrnq_1
*I *1306:ZN O *D gf180mcu_fd_sc_mcu7t5v0__oai21_1
*CAP
1 *1435:D 0.000181677
2 *1306:ZN 0.000181677
3 *1435:D *353:I 9.59587e-06
4 *1435:D *404:I 0.000117487
5 *1435:D *1306:A1 0.000759294
6 *1435:D *269:65 0.000191292
7 *1435:D *289:14 9.59587e-06
*RES
1 *1306:ZN *1435:D 20.356 
*END

*D_NET *53 0.0073611
*CONN
*I *1436:D I *D gf180mcu_fd_sc_mcu7t5v0__dffrnq_1
*I *1310:ZN O *D gf180mcu_fd_sc_mcu7t5v0__oai21_1
*CAP
1 *1436:D 0.000595613
2 *1310:ZN 0.000595613
3 *1436:D *1304:A1 2.2499e-05
4 *1436:D *1310:A2 0.000282902
5 *1436:D *1310:B 6.50518e-06
6 *1436:D *1446:D 0.000560041
7 *1436:D *1447:D 2.6126e-05
8 *1436:D *1459:SETN 2.23783e-05
9 *1436:D *1494:I 2.6126e-05
10 *1436:D *219:10 7.48754e-05
11 *1436:D *219:12 0.000250541
12 *1436:D *219:18 0.00193167
13 *1436:D *241:62 0.00207047
14 *1436:D *263:10 0.00020355
15 *1436:D *264:8 0.000372193
16 *1436:D *269:10 4.94969e-05
17 *1436:D *340:18 0.000270495
*RES
1 *1310:ZN *1436:D 28.64 
*END

*D_NET *54 0.00331616
*CONN
*I *1437:D I *D gf180mcu_fd_sc_mcu7t5v0__dffrnq_1
*I *1315:ZN O *D gf180mcu_fd_sc_mcu7t5v0__oai21_1
*CAP
1 *1437:D 0.000447055
2 *1315:ZN 0.000447055
3 *1437:D *1327:A2 0
4 *1437:D *1328:B 0.000140454
5 *1437:D *1436:RN 2.78759e-05
6 *1437:D *1468:I 0.00013063
7 *1437:D *1592:I 0.000876866
8 *1437:D *241:62 1.57373e-05
9 *1437:D *269:65 1.5015e-05
10 *1437:D *277:63 0.000926745
11 *1437:D *328:43 0.000288724
*RES
1 *1315:ZN *1437:D 23.092 
*END

*D_NET *55 0.00439454
*CONN
*I *1438:D I *D gf180mcu_fd_sc_mcu7t5v0__dffrnq_1
*I *1320:ZN O *D gf180mcu_fd_sc_mcu7t5v0__oai21_1
*CAP
1 *1438:D 0.000604267
2 *1320:ZN 0.000604267
3 *1438:D *1318:A2 0.000152572
4 *1438:D *1322:B 0.000294143
5 *1438:D *1324:A2 3.74839e-05
6 *1438:D *1359:B 0.000244261
7 *1438:D *1359:C 0.000121332
8 *1438:D *1437:RN 6.78741e-05
9 *1438:D *1438:CLK 3.08902e-05
10 *1438:D *1496:I 4.39682e-05
11 *1438:D *1563:I 0.000317125
12 *1438:D *144:25 0.000243736
13 *1438:D *146:36 0.000723981
14 *1438:D *333:16 0.000448651
15 *1438:D *333:22 0.000459983
16 *1438:D *334:24 0
*RES
1 *1320:ZN *1438:D 25.296 
*END

*D_NET *56 0.0032818
*CONN
*I *1439:D I *D gf180mcu_fd_sc_mcu7t5v0__dffrnq_1
*I *1324:ZN O *D gf180mcu_fd_sc_mcu7t5v0__oai21_1
*CAP
1 *1439:D 0.000469548
2 *1324:ZN 0.000469548
3 *1439:D *423:I 2.30549e-05
4 *1439:D *1324:B 7.70653e-05
5 *1439:D *1328:A2 0.000369754
6 *1439:D *1328:B 4.71484e-05
7 *1439:D *1438:CLK 5.88975e-06
8 *1439:D *1496:I 0.000886752
9 *1439:D *146:36 0
10 *1439:D *208:135 0
11 *1439:D *241:88 0.00013081
12 *1439:D *334:24 0.000802233
*RES
1 *1324:ZN *1439:D 23.7 
*END

*D_NET *57 0.000498217
*CONN
*I *1440:D I *D gf180mcu_fd_sc_mcu7t5v0__dffrnq_1
*I *1328:ZN O *D gf180mcu_fd_sc_mcu7t5v0__oai21_1
*CAP
1 *1440:D 0.000173399
2 *1328:ZN 0.000173399
3 *1440:D *1328:A1 0.000144308
4 *1440:D *1328:A2 7.11102e-06
5 *1440:D *1440:CLK 0
*RES
1 *1328:ZN *1440:D 10.216 
*END

*D_NET *58 0.00396999
*CONN
*I *1441:D I *D gf180mcu_fd_sc_mcu7t5v0__dffrnq_1
*I *1332:ZN O *D gf180mcu_fd_sc_mcu7t5v0__oai21_1
*CAP
1 *1441:D 0.000652398
2 *1332:ZN 0.000652398
3 *1441:D *355:I 3.83835e-06
4 *1441:D *406:I 2.7935e-05
5 *1441:D *450:I 0.000117348
6 *1441:D *1332:A2 1.02578e-05
7 *1441:D *1390:S 0.00202865
8 *1441:D *1441:RN 3.74621e-05
9 *1441:D *1441:CLK 2.9378e-06
10 *1441:D *1557:I 5.67491e-05
11 *1441:D *172:22 4.38082e-05
12 *1441:D *191:20 1.3758e-05
13 *1441:D *270:37 0.000263598
14 *1441:D *336:16 5.88438e-05
*RES
1 *1332:ZN *1441:D 24.764 
*END

*D_NET *59 0.00184891
*CONN
*I *1442:D I *D gf180mcu_fd_sc_mcu7t5v0__dffrnq_1
*I *1335:ZN O *D gf180mcu_fd_sc_mcu7t5v0__oai21_1
*CAP
1 *1442:D 0.000482101
2 *1335:ZN 0.000482101
3 *1442:D *406:I 8.6057e-05
4 *1442:D *1335:A1 8.25105e-05
5 *1442:D *1335:B 2.37605e-06
6 *1442:D *1425:D 0.000431543
7 *1442:D *1444:RN 8.90823e-06
8 *1442:D *1532:I 0.000199127
9 *1442:D *284:24 2.48239e-05
10 *1442:D *337:43 4.93579e-05
*RES
1 *1335:ZN *1442:D 12.724 
*END

*D_NET *60 0.00139759
*CONN
*I *1443:D I *D gf180mcu_fd_sc_mcu7t5v0__dffrnq_1
*I *1340:ZN O *D gf180mcu_fd_sc_mcu7t5v0__oai21_1
*CAP
1 *1443:D 0.000332032
2 *1340:ZN 0.000332032
3 *1443:D *350:I 1.12495e-05
4 *1443:D *406:I 0.000163098
5 *1443:D *1443:CLK 8.50132e-06
6 *1443:D *248:89 5.1176e-05
7 *1443:D *276:192 0.000201382
8 *1443:D *338:28 0.00029812
*RES
1 *1340:ZN *1443:D 20.888 
*END

*D_NET *61 0.0025225
*CONN
*I *1444:D I *D gf180mcu_fd_sc_mcu7t5v0__dffrnq_1
*I *1344:ZN O *D gf180mcu_fd_sc_mcu7t5v0__oai21_1
*CAP
1 *1444:D 0.000248483
2 *1344:ZN 0.000248483
3 *1444:D *412:I 2.36431e-05
4 *1444:D *1342:B 0
5 *1444:D *1343:A2 0.00032055
6 *1444:D *1344:A1 7.26757e-05
7 *1444:D *1344:A2 0.000165719
8 *1444:D *1344:B 0.000989687
9 *1444:D *1444:CLK 7.11102e-06
10 *1444:D *1502:I 0.000140167
11 *1444:D *272:63 0.000305982
*RES
1 *1344:ZN *1444:D 30.724 
*END

*D_NET *62 0.00869889
*CONN
*I *1445:D I *D gf180mcu_fd_sc_mcu7t5v0__dffrnq_1
*I *1348:ZN O *D gf180mcu_fd_sc_mcu7t5v0__oai21_1
*CAP
1 *1445:D 0.000831281
2 *1348:ZN 0.000831281
3 *1445:D *1291:A1 5.16238e-05
4 *1445:D *1310:A1 8.46598e-05
5 *1445:D *1310:A2 0.000190317
6 *1445:D *1310:B 0.000908112
7 *1445:D *1348:A2 3.21631e-05
8 *1445:D *1351:A2 0.000254235
9 *1445:D *1400:A1 0.00013063
10 *1445:D *1427:D 0.000559245
11 *1445:D *1445:CLK 0.000612758
12 *1445:D *1459:SETN 0.000184352
13 *1445:D *1486:I 5.69622e-05
14 *1445:D *219:18 0.000402958
15 *1445:D *269:29 0.000387765
16 *1445:D *276:46 1.52772e-05
17 *1445:D *276:77 8.42573e-05
18 *1445:D *276:91 9.88736e-06
19 *1445:D *296:61 0.00217616
20 samp_bot *1445:D 0.00089497
*RES
1 *1348:ZN *1445:D 31.072 
*END

*D_NET *63 0.00643539
*CONN
*I *1446:D I *D gf180mcu_fd_sc_mcu7t5v0__dffrnq_1
*I *1351:ZN O *D gf180mcu_fd_sc_mcu7t5v0__oai21_1
*CAP
1 *1446:D 0.000994595
2 *1351:ZN 0.000994595
3 *1446:D *1262:I 6.18153e-06
4 *1446:D *1304:A1 1.08384e-05
5 *1446:D *1354:B 0.000174307
6 *1446:D *1357:B 1.15919e-05
7 *1446:D *1445:RN 0.000136128
8 *1446:D *1447:D 0.00235662
9 *1446:D *1448:CLK 5.84514e-05
10 *1446:D *1537:I 0.000136128
11 *1446:D *229:22 3.73535e-05
12 *1446:D *239:41 0
13 *1446:D *241:31 0.000109817
14 *1446:D *241:62 0.000581347
15 *1446:D *281:35 9.26705e-05
16 *1446:D *281:43 0.000174731
17 *1436:D *1446:D 0.000560041
*RES
1 *1351:ZN *1446:D 37.944 
*END

*D_NET *64 0.0053304
*CONN
*I *1447:D I *D gf180mcu_fd_sc_mcu7t5v0__dffrnq_1
*I *1354:ZN O *D gf180mcu_fd_sc_mcu7t5v0__oai21_1
*CAP
1 *1447:D 0.000596579
2 *1354:ZN 0.000596579
3 *1447:D *1262:I 0.000294461
4 *1447:D *1304:A1 0.000336769
5 *1447:D *1354:A2 0.000104996
6 *1447:D *1354:B 7.4223e-06
7 *1447:D *1398:I1 0.000144162
8 *1447:D *1459:CLK 0.000396912
9 *1447:D *263:10 0.00023882
10 *1447:D *296:69 1.45335e-05
11 *1447:D *340:18 0.000216426
12 *1436:D *1447:D 2.6126e-05
13 *1446:D *1447:D 0.00235662
*RES
1 *1354:ZN *1447:D 26.36 
*END

*D_NET *65 0.000677551
*CONN
*I *1448:D I *D gf180mcu_fd_sc_mcu7t5v0__dffrnq_1
*I *1357:ZN O *D gf180mcu_fd_sc_mcu7t5v0__oai21_1
*CAP
1 *1448:D 0.000114107
2 *1357:ZN 0.000114107
3 *1448:D *1357:A1 1.38099e-05
4 *1448:D *1357:A2 7.99955e-05
5 *1448:D *281:29 0.000355532
*RES
1 *1357:ZN *1448:D 10.216 
*END

*D_NET *66 0.000556425
*CONN
*I *1449:D I *D gf180mcu_fd_sc_mcu7t5v0__dffrnq_1
*I *1360:ZN O *D gf180mcu_fd_sc_mcu7t5v0__oai21_1
*CAP
1 *1449:D 9.74704e-05
2 *1360:ZN 9.74704e-05
3 *1449:D *1360:A2 0.000127582
4 dac_p[4] *1449:D 0.000233902
*RES
1 *1360:ZN *1449:D 10.064 
*END

*D_NET *67 0.00386594
*CONN
*I *1450:D I *D gf180mcu_fd_sc_mcu7t5v0__dffrnq_1
*I *1363:ZN O *D gf180mcu_fd_sc_mcu7t5v0__oai21_1
*CAP
1 *1450:D 0.000399691
2 *1363:ZN 0.000399691
3 *1450:D *447:I 0.000142801
4 *1450:D *1363:A1 0.000640407
5 *1450:D *1503:I 0.000545584
6 *1450:D *1598:I 1.10152e-05
7 *1450:D *122:20 0.000773327
8 *1450:D *296:36 0.000201957
9 *1450:D *296:46 0.000309838
10 dac_p[1] *1450:D 0.000189259
11 dac_p[5] *1450:D 0.000252371
*RES
1 *1363:ZN *1450:D 24.688 
*END

*D_NET *68 0.000505991
*CONN
*I *1451:D I *D gf180mcu_fd_sc_mcu7t5v0__dffrnq_1
*I *1366:ZN O *D gf180mcu_fd_sc_mcu7t5v0__oai21_1
*CAP
1 *1451:D 5.12198e-05
2 *1366:ZN 5.12198e-05
3 *1451:D *349:I 0.000132729
4 *1451:D *1564:I 2.01055e-05
5 *1451:D *273:61 0.000250717
*RES
1 *1366:ZN *1451:D 9.836 
*END

*D_NET *69 0.00305436
*CONN
*I *1452:D I *D gf180mcu_fd_sc_mcu7t5v0__dffrnq_1
*I *1369:ZN O *D gf180mcu_fd_sc_mcu7t5v0__oai21_1
*CAP
1 *1452:D 0.000783157
2 *1369:ZN 0.000783157
3 *1452:D *1290:A2 0
4 *1452:D *1345:A1 7.59255e-06
5 *1452:D *1369:A1 1.42449e-05
6 *1452:D *1374:B2 4.74182e-05
7 *1452:D *1379:A1 0.000482648
8 *1452:D *1453:D 6.32138e-05
9 *1452:D *1503:I 0.000103513
10 *1452:D *1571:I 0
11 *1452:D *105:14 7.9527e-05
12 *1452:D *165:6 8.92257e-06
13 *1452:D *265:14 3.1099e-05
14 *1452:D *265:42 0.00024872
15 *1452:D *289:134 0.00040115
*RES
1 *1369:ZN *1452:D 15.384 
*END

*D_NET *70 0.00153708
*CONN
*I *1453:D I *D gf180mcu_fd_sc_mcu7t5v0__dffrnq_1
*I *1372:ZN O *D gf180mcu_fd_sc_mcu7t5v0__oai21_1
*CAP
1 *1453:D 0.000234919
2 *1372:ZN 0.000234919
3 *1453:D *1287:A1 0.00048678
4 *1453:D *1369:A1 2.6126e-05
5 *1453:D *1379:A1 4.62455e-05
6 *1453:D *122:20 5.74961e-05
7 *1453:D *280:52 0.000186796
8 *1453:D *280:72 0.000200586
9 *1452:D *1453:D 6.32138e-05
*RES
1 *1372:ZN *1453:D 20.508 
*END

*D_NET *71 0.0018727
*CONN
*I *1454:D I *D gf180mcu_fd_sc_mcu7t5v0__dffrnq_1
*I *1374:ZN O *D gf180mcu_fd_sc_mcu7t5v0__aoi22_1
*CAP
1 *1454:D 0.000443887
2 *1374:ZN 0.000443887
3 *1454:D *1363:A1 0.000321412
4 *1454:D *1379:A1 0.000232705
5 *1454:D *122:20 1.21686e-05
6 *1454:D *265:42 0.000146166
7 *1454:D *296:36 0.000272476
*RES
1 *1374:ZN *1454:D 13.256 
*END

*D_NET *72 0.00123596
*CONN
*I *1455:D I *D gf180mcu_fd_sc_mcu7t5v0__dffrnq_1
*I *1377:ZN O *D gf180mcu_fd_sc_mcu7t5v0__nor3_1
*CAP
1 *1455:D 0.000316633
2 *1377:ZN 0.000316633
3 *1455:D *1290:A1 5.39846e-05
4 *1455:D *1369:A2 0.000124968
5 *1455:D *1376:A1 0.000296331
6 *1455:D *1377:A3 9.50578e-06
7 *1455:D *1499:I 6.97314e-05
8 *1455:D *224:19 7.94847e-06
9 *1455:D *248:65 4.02215e-05
*RES
1 *1377:ZN *1455:D 20.432 
*END

*D_NET *73 0.00425695
*CONN
*I *1456:D I *D gf180mcu_fd_sc_mcu7t5v0__dffrnq_1
*I *1379:ZN O *D gf180mcu_fd_sc_mcu7t5v0__nor3_1
*CAP
1 *1456:D 0.000541217
2 *1379:ZN 0.000541217
3 *1456:D *391:I 5.28872e-05
4 *1456:D *1357:A2 0.000123951
5 *1456:D *1426:D 1.8344e-05
6 *1456:D *1426:CLK 2.6126e-05
7 *1456:D *1574:I 0
8 *1456:D *94:16 0.00113985
9 *1456:D *109:24 0
10 *1456:D *168:28 0.00114334
11 *1456:D *241:6 0.000220954
12 *1456:D *281:29 0.000276042
13 dac_p[2] *1456:D 0.000173025
*RES
1 *1379:ZN *1456:D 24.612 
*END

*D_NET *74 0.00623346
*CONN
*I *1457:D I *D gf180mcu_fd_sc_mcu7t5v0__dffsnq_1
*I *1382:ZN O *D gf180mcu_fd_sc_mcu7t5v0__nor2_1
*CAP
1 *1457:D 0.000528861
2 *1382:ZN 0.000528861
3 *1457:D *1382:A2 0.00193831
4 *1457:D *1458:RN 0.000173448
5 *1457:D *1458:CLK 0.000135936
6 *1457:D *1460:RN 0.000526238
7 *1457:D *1569:I 3.19219e-05
8 *1457:D *1570:I 0.000107455
9 cmp_rst *1457:D 0.000117832
10 dac_n[6] *1457:D 0.000371767
11 dac_n[7] *1457:D 0.00120052
12 dac_n[9] *1457:D 8.4259e-05
13 *4:30 *1457:D 0.000488042
*RES
1 *1382:ZN *1457:D 28.108 
*END

*D_NET *75 0.00300814
*CONN
*I *1458:D I *D gf180mcu_fd_sc_mcu7t5v0__dffrnq_1
*I *1384:ZN O *D gf180mcu_fd_sc_mcu7t5v0__oai21_1
*CAP
1 *1458:D 0.000393501
2 *1384:ZN 0.000393501
3 *1458:D *1381:A2 0.000118131
4 *1458:D *1381:A3 0.000556568
5 *1458:D *1382:A2 3.1702e-06
6 *1458:D *1396:A2 2.16288e-06
7 *1458:D *100:16 3.26844e-05
8 *1458:D *126:28 3.19219e-05
9 *1458:D *235:22 0.000659788
10 *1458:D *296:10 0.000117494
11 *1458:D *296:116 4.64479e-05
12 *1458:D *298:76 4.07251e-05
13 dac_n[7] *1458:D 0.000109197
14 dac_n[8] *1458:D 0.000502843
*RES
1 *1384:ZN *1458:D 23.396 
*END

*D_NET *76 0.000620535
*CONN
*I *1416:D I *D gf180mcu_fd_sc_mcu7t5v0__dffrnq_1
*I *1385:Z O *D gf180mcu_fd_sc_mcu7t5v0__mux2_2
*CAP
1 *1416:D 0.000116195
2 *1385:Z 0.000116195
3 *1416:D *1385:I1 0.000317494
4 *1416:D *241:62 5.83188e-05
5 *1416:D *269:65 1.23313e-05
*RES
1 *1385:Z *1416:D 10.216 
*END

*D_NET *77 0.000603439
*CONN
*I *1417:D I *D gf180mcu_fd_sc_mcu7t5v0__dffrnq_1
*I *1386:Z O *D gf180mcu_fd_sc_mcu7t5v0__mux2_2
*CAP
1 *1417:D 8.42959e-05
2 *1386:Z 8.42959e-05
3 *1417:D *1303:B 0.000136402
4 *1417:D *1306:A1 0.000298446
*RES
1 *1386:Z *1417:D 10.064 
*END

*D_NET *78 0.000671235
*CONN
*I *1418:D I *D gf180mcu_fd_sc_mcu7t5v0__dffrnq_1
*I *1387:Z O *D gf180mcu_fd_sc_mcu7t5v0__mux2_2
*CAP
1 *1418:D 1.09772e-05
2 *1387:Z 1.09772e-05
3 *1418:D *1496:I 0.00032464
4 *1418:D *191:20 0.00032464
*RES
1 *1387:Z *1418:D 9.836 
*END

*D_NET *79 0.00168259
*CONN
*I *1419:D I *D gf180mcu_fd_sc_mcu7t5v0__dffrnq_1
*I *1388:Z O *D gf180mcu_fd_sc_mcu7t5v0__mux2_2
*CAP
1 *1419:D 0.000547791
2 *1388:Z 0.000547791
3 *1419:D *1420:D 0.000112794
4 *1419:D *1438:RN 2.05953e-05
5 *1419:D *191:20 0
6 *1419:D *274:159 0.000110631
7 *1419:D *333:14 0.000342983
*RES
1 *1388:Z *1419:D 13.18 
*END

*D_NET *80 0.00203957
*CONN
*I *1420:D I *D gf180mcu_fd_sc_mcu7t5v0__dffrnq_1
*I *1389:Z O *D gf180mcu_fd_sc_mcu7t5v0__mux2_2
*CAP
1 *1420:D 0.000551148
2 *1389:Z 0.000551148
3 *1420:D *1323:A1 0.000168675
4 *1420:D *1438:RN 5.85779e-05
5 *1420:D *274:159 0.000470748
6 *1420:D *317:24 3.94822e-05
7 *1420:D *334:14 8.69929e-05
8 *1419:D *1420:D 0.000112794
*RES
1 *1389:Z *1420:D 13.636 
*END

*D_NET *81 0.00429678
*CONN
*I *1421:D I *D gf180mcu_fd_sc_mcu7t5v0__dffrnq_1
*I *1390:Z O *D gf180mcu_fd_sc_mcu7t5v0__mux2_2
*CAP
1 *1421:D 0.000772744
2 *1390:Z 0.000772744
3 *1421:D *397:I 0.000225751
4 *1421:D *441:I 0.000312109
5 *1421:D *1390:I0 0.00184423
6 *1421:D *1390:S 9.29918e-05
7 *1421:D *1441:CLK 5.08999e-05
8 *1421:D *191:20 6.48034e-06
9 *1421:D *191:34 0.000129992
10 *1421:D *322:16 3.93883e-05
11 *1421:D *327:53 4.945e-05
*RES
1 *1390:Z *1421:D 25.448 
*END

*D_NET *82 0.00297296
*CONN
*I *1422:D I *D gf180mcu_fd_sc_mcu7t5v0__dffrnq_1
*I *1391:Z O *D gf180mcu_fd_sc_mcu7t5v0__mux2_2
*CAP
1 *1422:D 0.000858414
2 *1391:Z 0.000858414
3 *1422:D *355:I 8.78711e-05
4 *1422:D *406:I 5.23458e-05
5 *1422:D *441:I 7.5318e-06
6 *1422:D *1335:A2 4.65585e-05
7 *1422:D *1391:I0 3.79206e-06
8 *1422:D *1441:CLK 8.55327e-05
9 *1422:D *1473:I 0.000182617
10 *1422:D *1530:I 2.39896e-05
11 *1422:D *1531:I 9.04266e-06
12 *1422:D *1558:I 0.000244641
13 *1422:D *208:249 0.000226693
14 *1422:D *274:155 7.2904e-05
15 *1422:D *284:12 1.40744e-05
16 *1422:D *318:10 0.000198536
*RES
1 *1391:Z *1422:D 24.308 
*END

*D_NET *83 0.00215602
*CONN
*I *1423:D I *D gf180mcu_fd_sc_mcu7t5v0__dffrnq_1
*I *1392:Z O *D gf180mcu_fd_sc_mcu7t5v0__mux2_2
*CAP
1 *1423:D 4.96544e-05
2 *1392:Z 4.96544e-05
3 *1423:D *350:I 0.00102836
4 *1423:D *1392:I0 0.00102836
*RES
1 *1392:Z *1423:D 20.66 
*END

*D_NET *84 0.00138039
*CONN
*I *1424:D I *D gf180mcu_fd_sc_mcu7t5v0__dffrnq_1
*I *1393:Z O *D gf180mcu_fd_sc_mcu7t5v0__mux2_2
*CAP
1 *1424:D 0.000504911
2 *1393:Z 0.000504911
3 *1424:D *1393:I1 0.000368169
4 *1424:D *1393:S 2.39931e-06
5 *1424:D *1474:I 0
6 *1424:D *1560:I 0
*RES
1 *1393:Z *1424:D 30.42 
*END

*D_NET *85 0.00416395
*CONN
*I *1425:D I *D gf180mcu_fd_sc_mcu7t5v0__dffrnq_1
*I *1394:Z O *D gf180mcu_fd_sc_mcu7t5v0__mux2_2
*CAP
1 *1425:D 0.000759231
2 *1394:Z 0.000759231
3 *1425:D *406:I 0.00111539
4 *1425:D *451:I 1.67274e-06
5 *1425:D *1392:I0 2.976e-05
6 *1425:D *1514:I 6.74343e-06
7 *1425:D *248:89 0.000393052
8 *1425:D *284:24 7.97597e-05
9 *1425:D *284:31 0
10 *1425:D *322:16 6.73472e-06
11 *1425:D *337:29 5.07702e-05
12 *1425:D *338:28 0.000530068
13 *1442:D *1425:D 0.000431543
*RES
1 *1394:Z *1425:D 25.448 
*END

*D_NET *86 0.0157498
*CONN
*I *1426:D I *D gf180mcu_fd_sc_mcu7t5v0__dffrnq_1
*I *1396:ZN O *D gf180mcu_fd_sc_mcu7t5v0__nor2_1
*CAP
1 *1426:D 0.000837305
2 *1396:ZN 0.00348353
3 *86:20 0.00432083
4 *1426:D *391:I 0
5 *1426:D *1262:I 4.98138e-05
6 *1426:D *1361:A1 1.19084e-05
7 *1426:D *1426:CLK 5.8238e-05
8 *1426:D *1448:RN 4.72007e-05
9 *1426:D *1449:RN 4.58601e-06
10 *1426:D *1459:CLK 2.98131e-06
11 *1426:D *1573:I 4.37105e-05
12 *1426:D *1575:I 0.000463174
13 *1426:D *209:6 2.23598e-06
14 *1426:D *243:8 4.99315e-05
15 *1426:D *244:39 8.75352e-05
16 *86:20 *1259:I 0.000400254
17 *86:20 *1271:A2 0.000422279
18 *86:20 *1360:A2 0.000203929
19 *86:20 *1360:B 0.000179658
20 *86:20 *1374:B1 8.37705e-05
21 *86:20 *1396:A2 5.69191e-05
22 *86:20 *1570:I 0
23 *86:20 *120:12 0
24 *86:20 *120:71 8.27687e-05
25 *86:20 *177:24 0.000321007
26 *86:20 *206:43 0.000138882
27 *86:20 *210:17 2.20592e-05
28 *86:20 *210:23 0.00011954
29 *86:20 *235:22 1.52768e-05
30 *86:20 *273:61 7.89074e-07
31 *86:20 *280:48 0.000688883
32 *86:20 *296:36 0.00207422
33 *86:20 *298:76 0
34 *86:20 *341:14 0.000414529
35 dac_p[2] *1426:D 0.00104367
36 *1456:D *1426:D 1.8344e-05
37 *47:8 *1426:D 0
*RES
1 *1396:ZN *86:20 46.668 
2 *86:20 *1426:D 11.264 
*END

*D_NET *87 0.00488945
*CONN
*I *1427:D I *D gf180mcu_fd_sc_mcu7t5v0__dffsnq_1
*I *1398:Z O *D gf180mcu_fd_sc_mcu7t5v0__mux2_2
*CAP
1 *1427:D 0.000581839
2 *1398:Z 0.000581839
3 *1427:D *1398:I1 0.000114072
4 *1427:D *1398:S 0
5 *1427:D *1400:A1 4.6555e-05
6 *1427:D *1459:SETN 0.000187308
7 *1427:D *1467:CLK 0.000904567
8 *1427:D *1486:I 2.96621e-05
9 *1427:D *109:24 0.000756314
10 *1427:D *276:46 0.000727279
11 *1427:D *276:91 2.88168e-05
12 *1427:D *290:151 1.97747e-05
13 *1427:D *308:22 0.000352176
14 *1445:D *1427:D 0.000559245
*RES
1 *1398:Z *1427:D 25.828 
*END

*D_NET *88 0.00192873
*CONN
*I *1428:D I *D gf180mcu_fd_sc_mcu7t5v0__dffrnq_1
*I *1400:ZN O *D gf180mcu_fd_sc_mcu7t5v0__oai32_4
*CAP
1 *1428:D 0.000164734
2 *1400:ZN 0.000164734
3 *1428:D *1357:B 5.04847e-05
4 *1428:D *1400:A2 0.00018853
5 *1428:D *1401:A2 6.69672e-06
6 *1428:D *1428:CLK 2.93993e-05
7 *1428:D *276:46 0.000773232
8 *1428:D *308:22 0.000362389
9 *1428:D *340:37 0.00018853
*RES
1 *1400:ZN *1428:D 30.116 
*END

*D_NET *89 0.00385181
*CONN
*I *1429:D I *D gf180mcu_fd_sc_mcu7t5v0__dffrnq_2
*I *1404:ZN O *D gf180mcu_fd_sc_mcu7t5v0__oai21_1
*CAP
1 *1429:D 0.000463044
2 *1404:ZN 0.000463044
3 *1429:D *1366:A2 0.000335029
4 *1429:D *1404:A2 0.00183968
5 *1429:D *1510:I 0.000115562
6 *1429:D *1548:I 2.23477e-05
7 *1429:D *97:14 0.00020006
8 *1429:D *208:19 0.000115565
9 *1429:D *276:46 0.00029747
*RES
1 *1404:ZN *1429:D 24.004 
*END

*D_NET *90 0.0033209
*CONN
*I *1430:D I *D gf180mcu_fd_sc_mcu7t5v0__dffsnq_1
*I *1406:Z O *D gf180mcu_fd_sc_mcu7t5v0__and2_1
*CAP
1 *1430:D 0.000657841
2 *1406:Z 0.000657841
3 *1430:D *400:I 0.000294876
4 *1430:D *1406:A2 2.08264e-05
5 *1430:D *1430:CLK 0
6 *1430:D *1509:I 2.6126e-05
7 *1430:D *1511:I 0.000199811
8 *1430:D *96:14 1.43407e-05
9 *1430:D *97:14 0.000556905
10 *1430:D *108:27 0.00080764
11 *1430:D *172:22 6.98022e-05
12 *1430:D *302:10 1.48937e-05
*RES
1 *1406:Z *1430:D 24.536 
*END

*D_NET *91 0.00124398
*CONN
*I *1431:D I *D gf180mcu_fd_sc_mcu7t5v0__dffrnq_1
*I *1409:ZN O *D gf180mcu_fd_sc_mcu7t5v0__oai22_1
*CAP
1 *1431:D 0.00031334
2 *1409:ZN 0.00031334
3 *1431:D *377:I 3.83835e-06
4 *1431:D *1289:A2 0.000137178
5 *1431:D *99:12 4.6618e-05
6 *1431:D *99:14 0.000175685
7 *1431:D *99:16 1.04132e-05
8 *1431:D *310:16 0.00024357
*RES
1 *1409:ZN *1431:D 20.508 
*END

*D_NET *92 0.00226394
*CONN
*I *1432:D I *D gf180mcu_fd_sc_mcu7t5v0__dffrnq_1
*I *1413:ZN O *D gf180mcu_fd_sc_mcu7t5v0__oai22_1
*CAP
1 *1432:D 0.00040359
2 *1413:ZN 0.00040359
3 *1432:D *415:I 8.96874e-05
4 *1432:D *1297:A1 7.25117e-05
5 *1432:D *1415:A2 0.000255228
6 *1432:D *123:65 5.27078e-05
7 *1432:D *296:116 0.000110287
8 *1432:D *310:16 0.000255228
9 *1460:D *1432:D 0.000621108
*RES
1 *1413:ZN *1432:D 30.876 
*END

*D_NET *93 0.00433454
*CONN
*I *1433:D I *D gf180mcu_fd_sc_mcu7t5v0__dffrnq_1
*I *1415:ZN O *D gf180mcu_fd_sc_mcu7t5v0__aoi21_1
*CAP
1 *1433:D 0.000653854
2 *1415:ZN 0.000653854
3 *1433:D *1274:A1 0.000193384
4 *1433:D *1299:B 6.84574e-06
5 *1433:D *1301:A2 0.000275447
6 *1433:D *1375:A3 0.00108764
7 *1433:D *1415:A2 0.00034753
8 *1433:D *1415:B 8.17471e-05
9 *1433:D *1432:RN 7.53889e-05
10 *1433:D *1433:CLK 2.65763e-05
11 *1434:D *1433:D 0.000754722
12 *1460:D *1433:D 0.00017755
*RES
1 *1415:ZN *1433:D 16.22 
*END

*D_NET *94 0.0204529
*CONN
*I *1341:A1 I *D gf180mcu_fd_sc_mcu7t5v0__nor4_4
*I *1325:A1 I *D gf180mcu_fd_sc_mcu7t5v0__nor4_4
*I *1312:A1 I *D gf180mcu_fd_sc_mcu7t5v0__and3_1
*I *1399:A1 I *D gf180mcu_fd_sc_mcu7t5v0__oai22_4
*I *1398:S I *D gf180mcu_fd_sc_mcu7t5v0__mux2_2
*I *1246:ZN O *D gf180mcu_fd_sc_mcu7t5v0__inv_2
*CAP
1 *1341:A1 7.41852e-05
2 *1325:A1 0.000276803
3 *1312:A1 0.000227611
4 *1399:A1 3.06953e-05
5 *1398:S 0.00114041
6 *1246:ZN 0.000972376
7 *94:54 0.000958282
8 *94:37 0.00130609
9 *94:16 0.00286013
10 *1312:A1 *1328:B 1.26723e-05
11 *1312:A1 *1356:C 1.33331e-05
12 *1312:A1 *230:41 0.000150709
13 *1312:A1 *268:25 2.71189e-05
14 *1325:A1 *368:I 0
15 *1325:A1 *1544:I 0.000829586
16 *1325:A1 *230:41 3.89037e-05
17 *1325:A1 *243:67 0.000741351
18 *1325:A1 *268:25 1.37103e-05
19 *1341:A1 *1544:I 3.31669e-05
20 *1341:A1 *268:25 0.000299399
21 *1341:A1 *290:40 1.34254e-05
22 *1398:S *1350:A2 0
23 *1398:S *1398:I0 2.98136e-05
24 *1398:S *1398:I1 9.4403e-05
25 *1398:S *1445:RN 0
26 *1398:S *1467:D 6.56754e-05
27 *1398:S *1486:I 2.2901e-05
28 *1398:S *240:23 0
29 *1398:S *269:29 0.000267019
30 *1398:S *340:18 2.96621e-05
31 *1399:A1 *1400:A3 0.000137785
32 *1399:A1 *240:23 2.11901e-05
33 *1399:A1 *291:79 1.5015e-05
34 *94:16 *1246:I 3.68972e-05
35 *94:16 *1361:A1 0.000145406
36 *94:16 *1366:B 1.97747e-05
37 *94:16 *1400:A1 0.000142088
38 *94:16 *120:18 0.000217762
39 *94:16 *168:28 0.00109479
40 *94:16 *170:30 0.00153075
41 *94:16 *289:14 6.8465e-05
42 *94:37 *1264:I 0.000416384
43 *94:37 *1400:A1 0
44 *94:37 *1427:SETN 2.80108e-05
45 *94:37 *1428:RN 6.61278e-06
46 *94:37 *1486:I 1.34649e-05
47 *94:37 *216:8 1.99893e-05
48 *94:37 *230:41 0.000613104
49 *94:37 *240:23 0
50 *94:37 *272:59 9.99188e-05
51 *94:54 *1356:A1 0.000119294
52 *94:54 *1359:B 0.00063479
53 *94:54 *208:107 0.000124476
54 *94:54 *230:41 0.00112898
55 *94:54 *272:59 0.000208943
56 dac_p[2] *94:16 0.00185423
57 dac_p[6] *94:16 8.55327e-05
58 dac_p[7] *94:16 0
59 *1427:D *1398:S 0
60 *1456:D *94:16 0.00113985
*RES
1 *1246:ZN *94:16 26.572 
2 *94:16 *1398:S 10.96 
3 *94:16 *94:37 9.82 
4 *94:37 *1399:A1 9.38 
5 *94:37 *94:54 10.504 
6 *94:54 *1312:A1 6.096 
7 *94:54 *1325:A1 7.768 
8 *1325:A1 *1341:A1 9.836 
*END

*D_NET *95 0.0102811
*CONN
*I *1311:A2 I *D gf180mcu_fd_sc_mcu7t5v0__nor2_2
*I *1307:A2 I *D gf180mcu_fd_sc_mcu7t5v0__and3_1
*I *1329:A2 I *D gf180mcu_fd_sc_mcu7t5v0__nor4_4
*I *1400:B2 I *D gf180mcu_fd_sc_mcu7t5v0__oai32_4
*I *1247:ZN O *D gf180mcu_fd_sc_mcu7t5v0__inv_2
*CAP
1 *1311:A2 9.0771e-05
2 *1307:A2 0.000365768
3 *1329:A2 0
4 *1400:B2 0.000596032
5 *1247:ZN 3.09321e-05
6 *95:16 0.00184551
7 *95:8 0.00173695
8 *1307:A2 *1318:A1 6.35236e-05
9 *1307:A2 *1347:B 0.00114323
10 *1307:A2 *1350:B 0.000351052
11 *1307:A2 *1353:B1 7.6687e-05
12 *1307:A2 *1360:A2 2.97354e-06
13 *1307:A2 *140:12 0.000491669
14 *1307:A2 *170:30 7.88364e-05
15 *1307:A2 *277:18 0.000355803
16 *1307:A2 *277:27 0.000510835
17 *1307:A2 *289:14 2.12573e-05
18 *1311:A2 *1270:A2 4.41053e-06
19 *1311:A2 *1398:I1 2.6126e-05
20 *1311:A2 *1400:A2 0.000367247
21 *1311:A2 *192:8 5.22519e-05
22 *1311:A2 *230:41 0.00018673
23 *1311:A2 *302:27 0
24 *1400:B2 *1349:A1 0.000361409
25 *1400:B2 *1400:A2 0.000937929
26 *1400:B2 *1572:I 0.000395038
27 *1400:B2 *230:41 0
28 *1400:B2 *280:10 1.45899e-05
29 *1400:B2 *290:129 0
30 *1400:B2 *290:188 0
31 *1400:B2 *291:79 8.03759e-06
32 *95:8 *1350:B 0.000137498
33 *95:8 *170:30 2.77032e-05
34 *95:16 *208:123 2.86762e-07
35 *95:16 *230:41 0
*RES
1 *1247:ZN *95:8 9.38 
2 *95:8 *95:16 14.016 
3 *95:16 *1400:B2 14.092 
4 *95:16 *1329:A2 9 
5 *95:8 *1307:A2 14.7 
6 *1400:B2 *1311:A2 19.368 
*END

*D_NET *96 0.0153189
*CONN
*I *1341:A3 I *D gf180mcu_fd_sc_mcu7t5v0__nor4_4
*I *1405:B I *D gf180mcu_fd_sc_mcu7t5v0__oai21_1
*I *1336:A1 I *D gf180mcu_fd_sc_mcu7t5v0__nor2_1
*I *1248:ZN O *D gf180mcu_fd_sc_mcu7t5v0__clkinv_1
*CAP
1 *1341:A3 0.000619132
2 *1405:B 6.44989e-05
3 *1336:A1 0.000605051
4 *1248:ZN 0.000383869
5 *96:14 0.0010575
6 *96:12 0.00139095
7 *1336:A1 *1249:I 0.00127723
8 *1336:A1 *1372:B 0.000154451
9 *1336:A1 *1373:A2 0.000939785
10 *1336:A1 *1379:A1 7.4219e-06
11 *1336:A1 *1404:B 0.000137853
12 *1336:A1 *1511:I 0.00124286
13 *1336:A1 *1598:I 2.81554e-06
14 *1336:A1 *104:12 0.000135941
15 *1336:A1 *120:71 7.7824e-05
16 *1336:A1 *196:10 0.000185115
17 *1336:A1 *206:43 4.50449e-05
18 *1341:A3 *1325:A4 0.000209814
19 *1341:A3 *1337:A1 1.49066e-06
20 *1341:A3 *1343:A2 0
21 *1341:A3 *1349:A1 3.75308e-05
22 *1341:A3 *108:43 0.000307974
23 *1341:A3 *118:14 4.53042e-05
24 *1341:A3 *159:12 2.9378e-06
25 *1341:A3 *172:22 0.000432745
26 *1405:B *1405:A1 5.71282e-05
27 *1405:B *208:19 3.51943e-05
28 *1405:B *274:14 5.87561e-06
29 *96:12 *1248:I 0.000387087
30 *96:12 *1521:I 0.000136163
31 *96:12 *1550:I 0.00070246
32 *96:12 *123:45 0.000597972
33 *96:12 *290:188 0.00136618
34 *96:14 *1511:I 0.000416046
35 *96:14 *118:14 0.000259157
36 *96:14 *172:22 0.00170264
37 *96:14 *196:10 0.000273482
38 *1430:D *96:14 1.43407e-05
*RES
1 *1248:ZN *96:12 15.308 
2 *96:12 *96:14 5.852 
3 *96:14 *1336:A1 17.36 
4 *96:14 *1405:B 9.532 
5 *96:12 *1341:A3 13.256 
*END

*D_NET *97 0.0107592
*CONN
*I *1329:A4 I *D gf180mcu_fd_sc_mcu7t5v0__nor4_4
*I *1321:A2 I *D gf180mcu_fd_sc_mcu7t5v0__nor2_4
*I *1404:A1 I *D gf180mcu_fd_sc_mcu7t5v0__oai21_1
*I *1337:A2 I *D gf180mcu_fd_sc_mcu7t5v0__and3_1
*I *1325:A4 I *D gf180mcu_fd_sc_mcu7t5v0__nor4_4
*I *1249:ZN O *D gf180mcu_fd_sc_mcu7t5v0__inv_2
*CAP
1 *1329:A4 0.000400901
2 *1321:A2 0.000116571
3 *1404:A1 0
4 *1337:A2 0.00027696
5 *1325:A4 0.000584522
6 *1249:ZN 0.000133675
7 *97:60 0.000812425
8 *97:14 0.00155211
9 *97:8 0.00111926
10 *1321:A2 *1329:A1 5.83188e-05
11 *1321:A2 *208:123 1.91917e-06
12 *1325:A4 *1337:A1 0
13 *1325:A4 *1341:A4 3.38043e-05
14 *1325:A4 *1349:A1 0.000482928
15 *1329:A4 *368:I 3.73627e-05
16 *1329:A4 *1544:I 8.55327e-05
17 *1329:A4 *208:123 0.000192532
18 *1329:A4 *290:55 1.34641e-05
19 *1329:A4 *290:61 4.37382e-05
20 *1337:A2 *1337:A1 1.75557e-05
21 *1337:A2 *1430:SETN 7.53927e-05
22 *1337:A2 *108:27 0.000107214
23 *1337:A2 *108:43 7.10074e-05
24 *1337:A2 *312:14 1.53123e-05
25 *97:8 *1249:I 0.000343551
26 *97:8 *1404:B 4.23892e-05
27 *97:8 *1510:I 1.97747e-05
28 *97:8 *104:12 8.02751e-06
29 *97:14 *400:I 0.000126621
30 *97:14 *1366:A2 3.10265e-05
31 *97:14 *1404:A2 0.000106385
32 *97:14 *1430:SETN 0.000140178
33 *97:14 *1509:I 0.000268176
34 *97:14 *1510:I 0.000307966
35 *97:14 *1548:I 1.65939e-05
36 *97:14 *108:27 0.000171322
37 *97:14 *302:10 0.000135263
38 *97:14 *302:18 0.00149134
39 *97:60 *1329:A1 2.22758e-05
40 *97:60 *1337:A1 6.07806e-05
41 *97:60 *229:51 5.77284e-05
42 *97:60 *290:61 0.000210554
43 *1341:A3 *1325:A4 0.000209814
44 *1429:D *97:14 0.00020006
45 *1430:D *97:14 0.000556905
*RES
1 *1249:ZN *97:8 5.716 
2 *97:8 *97:14 15.14 
3 *97:14 *1325:A4 11.964 
4 *97:14 *1337:A2 10.824 
5 *97:8 *1404:A1 4.5 
6 *1325:A4 *97:60 6.78 
7 *97:60 *1321:A2 5.184 
8 *97:60 *1329:A4 16.236 
*END

*D_NET *98 0.00799797
*CONN
*I *1276:A1 I *D gf180mcu_fd_sc_mcu7t5v0__nor2_1
*I *1410:A1 I *D gf180mcu_fd_sc_mcu7t5v0__nand4_1
*I *1250:ZN O *D gf180mcu_fd_sc_mcu7t5v0__clkinv_1
*CAP
1 *1276:A1 0.000321919
2 *1410:A1 3.14256e-05
3 *1250:ZN 0.000883499
4 *98:12 0.00123684
5 *1276:A1 *1252:I 0
6 *1276:A1 *1276:A2 6.3983e-05
7 *1276:A1 *1410:A2 7.48754e-05
8 *1276:A1 *1554:I 0.000900417
9 *1276:A1 *111:12 6.56014e-05
10 *1410:A1 *1529:I 7.83779e-05
11 *98:12 *360:I 0.000427014
12 *98:12 *1250:I 0.000992313
13 *98:12 *1289:A2 9.97597e-05
14 *98:12 *1301:B1 0.00151674
15 *98:12 *1529:I 0.000159012
16 *98:12 *1554:I 0.000137244
17 *98:12 *1569:I 0.000145505
18 *98:12 *111:8 0.000122708
19 *98:12 *120:81 9.23763e-05
20 *443:I *1276:A1 8.87222e-05
21 *443:I *98:12 0.000107914
22 *1541:I *98:12 0.000199908
23 *4:30 *1276:A1 0.00025181
*RES
1 *1250:ZN *98:12 23.988 
2 *98:12 *1410:A1 4.728 
3 *98:12 *1276:A1 17.376 
*END

*D_NET *99 0.010117
*CONN
*I *1279:A1 I *D gf180mcu_fd_sc_mcu7t5v0__nor2_1
*I *1414:A1 I *D gf180mcu_fd_sc_mcu7t5v0__or4_1
*I *1408:B I *D gf180mcu_fd_sc_mcu7t5v0__oai31_1
*I *1409:A1 I *D gf180mcu_fd_sc_mcu7t5v0__oai22_1
*I *1275:A1 I *D gf180mcu_fd_sc_mcu7t5v0__nand3_1
*I *1251:ZN O *D gf180mcu_fd_sc_mcu7t5v0__clkinv_1
*CAP
1 *1279:A1 1.7922e-05
2 *1414:A1 0
3 *1408:B 7.02903e-05
4 *1409:A1 0
5 *1275:A1 0.000638321
6 *1251:ZN 0.0012978
7 *99:44 0.000387371
8 *99:16 0.000650862
9 *99:14 0.000418282
10 *99:12 0.00140438
11 *1275:A1 *1252:I 0.00019902
12 *1275:A1 *1289:A2 1.46823e-05
13 *1275:A1 *1409:B1 0.000179161
14 *1275:A1 *1412:A2 3.29542e-05
15 *1275:A1 *1527:I 0.000146537
16 *1275:A1 *1528:I 8.3622e-05
17 *1275:A1 *1554:I 0.000405332
18 *1275:A1 *100:58 0.000199463
19 *1275:A1 *100:64 6.77295e-05
20 *1275:A1 *311:6 0.000147313
21 *1279:A1 *271:8 1.43484e-05
22 *1279:A1 *310:16 8.47571e-05
23 *1408:B *1375:A3 0.000331264
24 *1408:B *1409:B2 0.000232733
25 *1408:B *296:116 3.71745e-05
26 *99:12 *415:I 3.33303e-05
27 *99:12 *1251:I 0.000763301
28 *99:12 *1274:A1 0.000149507
29 *99:12 *1274:A2 0
30 *99:12 *1277:A3 4.93027e-05
31 *99:12 *1279:A2 5.47903e-05
32 *99:12 *1282:A2 7.1606e-05
33 *99:12 *1289:A2 1.63563e-05
34 *99:12 *1352:A1 5.84953e-05
35 *99:12 *1569:I 1.83267e-05
36 *99:12 *227:31 0
37 *99:14 *1279:A2 2.47642e-05
38 *99:14 *1412:A2 0.000412999
39 *99:16 *1289:A2 1.92743e-06
40 *99:16 *1412:A2 8.75225e-05
41 *99:44 *1299:B 0.00073573
42 *99:44 *1375:A3 0.000117608
43 *99:44 *296:116 0.000143293
44 *1431:D *99:12 4.6618e-05
45 *1431:D *99:14 0.000175685
46 *1431:D *99:16 1.04132e-05
47 *1460:D *99:12 0
48 *4:30 *1275:A1 8.40847e-05
*RES
1 *1251:ZN *99:12 17.284 
2 *99:12 *99:14 1.292 
3 *99:14 *99:16 0.228 
4 *99:16 *1275:A1 14.244 
5 *99:16 *1409:A1 9 
6 *99:14 *99:44 11.432 
7 *99:44 *1408:B 9.988 
8 *99:44 *1414:A1 9 
9 *99:12 *1279:A1 9.228 
*END

*D_NET *100 0.0171524
*CONN
*I *1275:A2 I *D gf180mcu_fd_sc_mcu7t5v0__nand3_1
*I *1410:A3 I *D gf180mcu_fd_sc_mcu7t5v0__nand4_1
*I *1413:A1 I *D gf180mcu_fd_sc_mcu7t5v0__oai22_1
*I *1414:A2 I *D gf180mcu_fd_sc_mcu7t5v0__or4_1
*I *1281:A2 I *D gf180mcu_fd_sc_mcu7t5v0__nand4_1
*I *1280:A2 I *D gf180mcu_fd_sc_mcu7t5v0__nand3_1
*I *1252:ZN O *D gf180mcu_fd_sc_mcu7t5v0__clkinv_1
*CAP
1 *1275:A2 0.000106392
2 *1410:A3 5.85987e-05
3 *1413:A1 0
4 *1414:A2 0.000241537
5 *1281:A2 0
6 *1280:A2 0.000146702
7 *1252:ZN 0.000402725
8 *100:64 0.00052079
9 *100:58 0.000511246
10 *100:54 0.000981628
11 *100:31 0.001204
12 *100:16 0.00105158
13 *1275:A2 *1527:I 0.000247743
14 *1275:A2 *1528:I 9.17202e-06
15 *1275:A2 *1554:I 0.000326954
16 *1275:A2 *111:28 0.000193539
17 *1280:A2 *1280:A1 0.000973459
18 *1280:A2 *1288:A2 2.0468e-05
19 *1280:A2 *1289:A2 1.15244e-05
20 *1280:A2 *1571:I 0.000896332
21 *1280:A2 *296:36 8.53639e-05
22 *1410:A3 *1299:A2 5.87561e-06
23 *1410:A3 *1408:A3 0.000531182
24 *1410:A3 *1488:I 0.000583434
25 *1414:A2 *1409:B2 0.000362787
26 *1414:A2 *1413:A2 9.88736e-06
27 *1414:A2 *127:12 0.000137106
28 *1414:A2 *198:26 0.000268519
29 *100:16 *1289:A2 1.91917e-06
30 *100:16 *1381:A1 0.000360765
31 *100:16 *1381:A2 0.000427183
32 *100:16 *1382:A2 0.000590696
33 *100:16 *1396:A2 0.000507951
34 *100:16 *1460:RN 1.6604e-05
35 *100:16 *235:22 1.33572e-05
36 *100:16 *296:36 7.49127e-05
37 *100:16 *298:76 7.59985e-05
38 *100:16 *341:14 0.000340309
39 *100:31 *1382:A1 0.000289651
40 *100:31 *1460:CLK 0.000516116
41 *100:31 *1465:RN 2.97866e-05
42 *100:31 *210:17 0.000447381
43 *100:31 *239:97 0.0011389
44 *100:31 *288:26 5.27252e-06
45 *100:31 *288:32 6.64701e-06
46 *100:31 *341:14 8.886e-05
47 *100:54 *1281:A1 0.000182094
48 *100:54 *1293:A2 2.86661e-07
49 *100:54 *1299:A2 0.000163205
50 *100:54 *1382:A1 0.000179657
51 *100:54 *1465:RN 0.000140161
52 *100:54 *1527:I 0.000185742
53 *100:54 *1553:I 0
54 *100:54 *306:8 9.59587e-06
55 *100:54 *341:14 5.01988e-05
56 *100:58 *1289:A2 9.25235e-05
57 *100:58 *1299:A2 0.000140772
58 *100:58 *1528:I 0.000187398
59 *100:64 *1289:A2 0.000602981
60 *1275:A1 *100:58 0.000199463
61 *1275:A1 *100:64 6.77295e-05
62 *1458:D *100:16 3.26844e-05
63 *1462:D *100:54 2.293e-05
64 *1464:D *100:54 7.40827e-05
*RES
1 *1252:ZN *100:16 18.82 
2 *100:16 *1280:A2 7.768 
3 *100:16 *100:31 14.472 
4 *100:31 *1281:A2 4.5 
5 *100:31 *100:54 14.092 
6 *100:54 *100:58 6.4 
7 *100:58 *100:64 6.628 
8 *100:64 *1414:A2 6.856 
9 *100:64 *1413:A1 4.5 
10 *100:58 *1410:A3 10.596 
11 *100:54 *1275:A2 6.096 
*END

*D_NET *101 0.00946212
*CONN
*I *1299:B I *D gf180mcu_fd_sc_mcu7t5v0__oai21_1
*I *1301:A1 I *D gf180mcu_fd_sc_mcu7t5v0__aoi22_1
*I *1253:ZN O *D gf180mcu_fd_sc_mcu7t5v0__clkinv_1
*CAP
1 *1299:B 0.00141461
2 *1301:A1 0
3 *1253:ZN 0.000722552
4 *101:16 0.00213716
5 *1299:B *378:I 3.71299e-05
6 *1299:B *415:I 0.000326445
7 *1299:B *1297:A1 1.87496e-05
8 *1299:B *1299:A1 1.52768e-05
9 *1299:B *1301:B1 0.000147001
10 *1299:B *1346:A1 4.92801e-06
11 *1299:B *1415:A2 5.55462e-06
12 *1299:B *1569:I 0.000144194
13 *1299:B *123:65 4.64608e-05
14 *1299:B *166:12 2.20548e-05
15 *1299:B *211:52 0.000190317
16 *1299:B *226:12 6.55539e-05
17 *1299:B *226:27 0.00129545
18 *101:16 *1253:I 4.05425e-05
19 *101:16 *1285:A1 8.19174e-06
20 *101:16 *1285:B 0.000426749
21 *101:16 *1415:A2 7.22127e-06
22 *101:16 *113:6 3.84832e-06
23 *101:16 *170:30 0.000118269
24 *101:16 *226:12 0
25 *101:16 *228:16 0.000756468
26 *101:16 *228:24 0.000125479
27 *101:16 *274:97 4.50449e-05
28 *101:16 *344:8 0.000336865
29 *101:16 *344:27 3.34854e-05
30 *443:I *1299:B 0.000144194
31 *1433:D *1299:B 6.84574e-06
32 *1434:D *1299:B 1.19401e-05
33 *1466:D *1299:B 6.78072e-05
34 *99:44 *1299:B 0.00073573
*RES
1 *1253:ZN *101:16 19.276 
2 *101:16 *1301:A1 4.5 
3 *101:16 *1299:B 33.064 
*END

*D_NET *102 0.00600577
*CONN
*I *1415:A1 I *D gf180mcu_fd_sc_mcu7t5v0__aoi21_1
*I *1254:ZN O *D gf180mcu_fd_sc_mcu7t5v0__clkinv_1
*CAP
1 *1415:A1 0.00098836
2 *1254:ZN 0.00098836
3 *1415:A1 *1251:I 0
4 *1415:A1 *1274:A1 0.000494489
5 *1415:A1 *1277:A3 2.65201e-05
6 *1415:A1 *1278:A1 0.00084679
7 *1415:A1 *1283:A1 0.000127407
8 *1415:A1 *1283:A2 3.07734e-05
9 *1415:A1 *1285:B 0.000159515
10 *1415:A1 *1352:A1 2.57289e-05
11 *1415:A1 *1463:RN 0
12 *1415:A1 *1601:I 0.000521365
13 *1415:A1 *113:6 0.00053565
14 *1415:A1 *113:10 0.000108609
15 *1415:A1 *228:16 0.000963087
16 *1415:A1 *344:8 0.000160503
17 *1415:A1 *344:27 2.86154e-05
*RES
1 *1254:ZN *1415:A1 28.716 
*END

*D_NET *103 0.00582159
*CONN
*I *1278:A2 I *D gf180mcu_fd_sc_mcu7t5v0__nor3_1
*I *1376:A1 I *D gf180mcu_fd_sc_mcu7t5v0__aoi21_1
*I *1255:ZN O *D gf180mcu_fd_sc_mcu7t5v0__clkinv_1
*CAP
1 *1278:A2 0.000427966
2 *1376:A1 0.000895618
3 *1255:ZN 0
4 *103:6 0.00132358
5 *1278:A2 *1273:A1 7.48834e-05
6 *1278:A2 *1278:A1 2.52855e-05
7 *1278:A2 *1296:A1 0.00031494
8 *1278:A2 *1296:A2 9.61639e-06
9 *1278:A2 *1296:A3 2.59977e-05
10 *1278:A2 *1300:A1 3.2804e-06
11 *1278:A2 *1407:C 7.97597e-05
12 *1278:A2 *1413:B2 4.65744e-05
13 *1278:A2 *127:12 0
14 *1278:A2 *248:65 1.13998e-05
15 *1376:A1 *431:I 0.000194259
16 *1376:A1 *1288:B 0.000105987
17 *1376:A1 *1290:A2 6.09807e-06
18 *1376:A1 *1296:A1 0.000106395
19 *1376:A1 *1377:A3 4.16201e-05
20 *1376:A1 *1407:A1 5.09799e-05
21 *1376:A1 *1542:I 0
22 *1376:A1 *105:14 1.53727e-05
23 *1376:A1 *224:19 0
24 *1376:A1 *279:10 0
25 *1455:D *1376:A1 0.000296331
26 *1462:D *1376:A1 0
27 *44:10 *1278:A2 0.00128397
28 *44:10 *1376:A1 0.000481665
*RES
1 *1255:ZN *103:6 9 
2 *103:6 *1376:A1 15.308 
3 *103:6 *1278:A2 13.788 
*END

*D_NET *104 0.00974658
*CONN
*I *1511:I I *D gf180mcu_fd_sc_mcu7t5v0__dlyb_1
*I *1510:I I *D gf180mcu_fd_sc_mcu7t5v0__dlyb_1
*I *1256:ZN O *D gf180mcu_fd_sc_mcu7t5v0__clkinv_1
*CAP
1 *1511:I 0.000187863
2 *1510:I 0.000578928
3 *1256:ZN 0.000661888
4 *104:12 0.00142868
5 *1510:I *400:I 0
6 *1510:I *1363:B 0.00021443
7 *1510:I *1366:A2 0.00025885
8 *1510:I *1404:B 0.00013063
9 *1510:I *1503:I 0.0002559
10 *1510:I *1548:I 5.06403e-06
11 *1510:I *265:42 3.1355e-05
12 *1511:I *400:I 0.000188422
13 *1511:I *1249:I 0.000145294
14 *1511:I *1406:A2 0.000507517
15 *1511:I *208:19 4.1997e-05
16 *1511:I *276:46 0.000147305
17 *104:12 *357:I 9.7812e-05
18 *104:12 *1249:I 0.000152028
19 *104:12 *1256:I 0.000619186
20 *104:12 *1383:A1 0.000469636
21 *104:12 *1383:A3 8.0268e-05
22 *104:12 *1404:B 0.000246194
23 *104:12 *1452:CLK 2.47206e-05
24 *104:12 *1503:I 0
25 *104:12 *1548:I 1.88647e-06
26 *104:12 *126:10 0.00040989
27 *104:12 *273:10 0.000394385
28 *104:12 *305:12 2.0468e-05
29 *1336:A1 *1511:I 0.00124286
30 *1336:A1 *104:12 0.000135941
31 *1429:D *1510:I 0.000115562
32 *1430:D *1511:I 0.000199811
33 *96:14 *1511:I 0.000416046
34 *97:8 *1510:I 1.97747e-05
35 *97:8 *104:12 8.02751e-06
36 *97:14 *1510:I 0.000307966
*RES
1 *1256:ZN *104:12 16.22 
2 *104:12 *1510:I 22.56 
3 *104:12 *1511:I 13.864 
*END

*D_NET *105 0.00831706
*CONN
*I *1407:A1 I *D gf180mcu_fd_sc_mcu7t5v0__oai221_4
*I *1508:I I *D gf180mcu_fd_sc_mcu7t5v0__buf_2
*I *1257:ZN O *D gf180mcu_fd_sc_mcu7t5v0__clkinv_1
*CAP
1 *1407:A1 0.000942681
2 *1508:I 0
3 *1257:ZN 0.000529235
4 *105:14 0.00147192
5 *1407:A1 *1290:A2 0.000737524
6 *1407:A1 *1369:A2 0.00123901
7 *1407:A1 *1372:A2 0
8 *1407:A1 *1374:B2 0.000346463
9 *1407:A1 *1377:A3 0.000244497
10 *1407:A1 *1407:B2 0.000132933
11 *1407:A1 *1548:I 2.57058e-06
12 *1407:A1 *224:12 0.000651208
13 *1407:A1 *231:50 5.1647e-06
14 *1407:A1 *279:10 6.50714e-05
15 *105:14 *431:I 6.50326e-05
16 *105:14 *1287:A2 0.00117541
17 *105:14 *1374:B2 0.000496682
18 *105:14 *1503:I 2.49331e-05
19 *105:14 *1548:I 2.06747e-05
20 *105:14 *287:20 5.93886e-06
21 *105:14 *287:44 1.42304e-05
22 *1376:A1 *1407:A1 5.09799e-05
23 *1376:A1 *105:14 1.53727e-05
24 *1452:D *105:14 7.9527e-05
*RES
1 *1257:ZN *105:14 18.744 
2 *105:14 *1508:I 4.5 
3 *105:14 *1407:A1 23.228 
*END

*D_NET *106 0.00420372
*CONN
*I *1401:A2 I *D gf180mcu_fd_sc_mcu7t5v0__aoi211_1
*I *1258:ZN O *D gf180mcu_fd_sc_mcu7t5v0__clkinv_1
*CAP
1 *1401:A2 0.000607065
2 *1258:ZN 0.000607065
3 *1401:A2 *422:I 6.73834e-05
4 *1401:A2 *1258:I 0.000476463
5 *1401:A2 *1402:A1 6.44609e-05
6 *1401:A2 *1404:A2 0.000625019
7 *1401:A2 *1428:CLK 0
8 *1401:A2 *208:19 5.84867e-06
9 *1401:A2 *276:46 0.0013268
10 *1401:A2 *290:151 0.000394969
11 *1401:A2 *340:37 2.19498e-05
12 *1428:D *1401:A2 6.69672e-06
*RES
1 *1258:ZN *1401:A2 16.068 
*END

*D_NET *107 0.0060308
*CONN
*I *1383:A1 I *D gf180mcu_fd_sc_mcu7t5v0__nand3_1
*I *1259:ZN O *D gf180mcu_fd_sc_mcu7t5v0__clkinv_1
*CAP
1 *1383:A1 0.000887538
2 *1259:ZN 0.000887538
3 *1383:A1 *1290:A2 0.0003403
4 *1383:A1 *1369:A2 0.000313815
5 *1383:A1 *1383:A3 0.000314298
6 *1383:A1 *1384:B 7.29442e-05
7 *1383:A1 *1460:CLK 0.000135349
8 *1383:A1 *1461:CLK 0.00041339
9 *1383:A1 *1464:CLK 0.000660442
10 *1383:A1 *126:10 0.00107845
11 *1383:A1 *210:6 5.94067e-05
12 *1383:A1 *223:12 0.000211477
13 *1383:A1 *305:8 8.28508e-05
14 *1383:A1 *305:12 4.62379e-05
15 *1464:D *1383:A1 5.71282e-05
16 *104:12 *1383:A1 0.000469636
*RES
1 *1259:ZN *1383:A1 29.172 
*END

*D_NET *108 0.0169725
*CONN
*I *1337:A3 I *D gf180mcu_fd_sc_mcu7t5v0__and3_1
*I *1356:B2 I *D gf180mcu_fd_sc_mcu7t5v0__aoi221_2
*I *1302:A2 I *D gf180mcu_fd_sc_mcu7t5v0__and2_1
*I *1401:B I *D gf180mcu_fd_sc_mcu7t5v0__aoi211_1
*I *1270:ZN O *D gf180mcu_fd_sc_mcu7t5v0__nor2_2
*CAP
1 *1337:A3 0
2 *1356:B2 0
3 *1302:A2 7.24223e-05
4 *1401:B 0
5 *1270:ZN 0.000508628
6 *108:43 0.000899995
7 *108:27 0.00128641
8 *108:14 0.000967461
9 *1302:A2 *1327:A1 0.000344707
10 *1302:A2 *1365:A1 0.000294136
11 *1302:A2 *143:31 7.43862e-05
12 *108:14 *1366:A2 0.000456711
13 *108:14 *1402:A2 0.000555533
14 *108:14 *1402:A3 0.000304616
15 *108:14 *206:14 0.00021594
16 *108:14 *218:41 0.000351361
17 *108:14 *233:22 2.25679e-05
18 *108:14 *280:31 5.20172e-05
19 *108:14 *289:99 0.000359444
20 *108:14 *292:47 2.98905e-05
21 *108:14 *293:54 0.000304616
22 *108:14 *302:27 0.000131068
23 *108:27 *1402:A3 0.000257887
24 *108:27 *1525:I 0.000745016
25 *108:27 *172:22 0.000299812
26 *108:27 *282:29 4.23892e-05
27 *108:27 *293:54 0.000447073
28 *108:27 *312:14 0.000482918
29 *108:43 *438:I 0.000162177
30 *108:43 *1326:B 8.55327e-05
31 *108:43 *1327:A1 0.000322639
32 *108:43 *1331:A1 9.50296e-06
33 *108:43 *1337:A1 1.16188e-05
34 *108:43 *1365:A1 0.00207326
35 *108:43 *1366:A2 0.000117271
36 *108:43 *1430:SETN 8.75225e-05
37 *108:43 *1518:I 0.000384386
38 *108:43 *144:52 0.00164685
39 *108:43 *172:22 0
40 *108:43 *207:12 0.000432986
41 *108:43 *243:67 0.000174584
42 *108:43 *312:14 2.30199e-05
43 *108:43 *336:31 0.000469009
44 *1337:A2 *108:27 0.000107214
45 *1337:A2 *108:43 7.10074e-05
46 *1341:A3 *108:43 0.000307974
47 *1430:D *108:27 0.00080764
48 *97:14 *108:27 0.000171322
*RES
1 *1270:ZN *108:14 19.656 
2 *108:14 *1401:B 4.5 
3 *108:14 *108:27 15.536 
4 *108:27 *108:43 21.16 
5 *108:43 *1302:A2 5.868 
6 *108:43 *1356:B2 4.5 
7 *108:27 *1337:A3 4.5 
*END

*D_NET *109 0.0107761
*CONN
*I *1546:I I *D gf180mcu_fd_sc_mcu7t5v0__dlyb_1
*I *1507:I I *D gf180mcu_fd_sc_mcu7t5v0__dlyb_1
*I *1271:ZN O *D gf180mcu_fd_sc_mcu7t5v0__nor2_1
*CAP
1 *1546:I 9.36831e-05
2 *1507:I 2.21679e-05
3 *1271:ZN 0.00162912
4 *109:24 0.00174497
5 *1507:I *1399:A2 2.21662e-05
6 *1507:I *1480:I 3.37994e-05
7 *1546:I *1399:A2 4.07677e-05
8 *1546:I *1480:I 8.5098e-05
9 *109:24 *391:I 4.91966e-06
10 *109:24 *1258:I 1.3758e-05
11 *109:24 *1357:A2 0.000372799
12 *109:24 *1360:A2 5.25883e-05
13 *109:24 *1398:I1 3.68751e-05
14 *109:24 *1400:A1 0.000286033
15 *109:24 *1501:I 0.00165483
16 *109:24 *1574:I 0.000189326
17 *109:24 *1598:I 9.79641e-05
18 *109:24 *120:18 0.000261027
19 *109:24 *243:21 0
20 *109:24 *265:42 0.000358062
21 *109:24 *276:46 0.000197908
22 *109:24 *290:151 0.000966235
23 *109:24 *301:10 0.00110566
24 *109:24 *308:22 6.0553e-05
25 *1396:A1 *109:24 0.000503339
26 *1427:D *109:24 0.000756314
27 *1456:D *109:24 0
28 *1459:D *109:24 0.000186112
*RES
1 *1271:ZN *109:24 40.284 
2 *109:24 *1507:I 4.728 
3 *109:24 *1546:I 5.184 
*END

*D_NET *110 0.0154191
*CONN
*I *1273:A2 I *D gf180mcu_fd_sc_mcu7t5v0__nor2_1
*I *1292:B1 I *D gf180mcu_fd_sc_mcu7t5v0__oai22_4
*I *1407:B1 I *D gf180mcu_fd_sc_mcu7t5v0__oai221_4
*I *1287:A2 I *D gf180mcu_fd_sc_mcu7t5v0__nand2_1
*I *1272:Z O *D gf180mcu_fd_sc_mcu7t5v0__or4_2
*CAP
1 *1273:A2 0.00147053
2 *1292:B1 0.000170649
3 *1407:B1 0.000180535
4 *1287:A2 0.000523532
5 *1272:Z 0.000896882
6 *110:37 0.000417912
7 *110:33 0.00206384
8 *110:14 0.001947
9 *1273:A2 *1273:A1 0.000390764
10 *1273:A2 *1374:B2 6.384e-05
11 *1273:A2 *1407:B2 0
12 *1273:A2 *1460:CLK 1.30364e-05
13 *1273:A2 *120:71 0
14 *1273:A2 *239:41 0
15 *1273:A2 *239:83 0
16 *1273:A2 *288:20 2.30715e-05
17 *1273:A2 *341:14 8.17438e-05
18 *1287:A2 *1287:A1 4.94864e-07
19 *1287:A2 *1367:A2 0.000171037
20 *1287:A2 *1374:B2 7.56055e-05
21 *1287:A2 *120:71 0.000572659
22 *1287:A2 *273:10 0.000378151
23 *1287:A2 *273:12 0.000212925
24 *1287:A2 *287:33 9.74926e-05
25 *1287:A2 *289:116 0.000187616
26 *1287:A2 *289:118 0.000462978
27 *1287:A2 *289:122 0.000411265
28 *1287:A2 *289:134 2.88179e-05
29 *1292:B1 *1273:A1 5.26975e-06
30 *1292:B1 *1292:B2 4.90368e-05
31 *1292:B1 *1372:A2 4.4947e-05
32 *1292:B1 *1430:CLK 2.0385e-05
33 *1407:B1 *1273:A1 0.000580138
34 *1407:B1 *1430:CLK 0
35 *110:14 *1294:A1 0.000111854
36 *110:14 *1397:A2 0.000703081
37 *110:14 *1402:A2 0
38 *110:14 *1406:A1 0
39 *110:14 *1505:I 8.25105e-05
40 *110:14 *192:8 1.60091e-05
41 *110:14 *206:14 0.000189639
42 *110:14 *287:20 7.03591e-05
43 *110:14 *289:99 7.45328e-07
44 *110:14 *289:116 0
45 *110:14 *302:27 6.90452e-05
46 *110:33 *1374:B2 8.13218e-05
47 *110:33 *1376:A2 0.000478896
48 *110:33 *1407:B2 0
49 *110:33 *1505:I 7.29871e-06
50 *110:33 *239:41 0
51 *110:33 *276:147 4.59151e-05
52 *110:33 *287:20 0.000344117
53 *110:33 *287:33 1.3456e-05
54 *110:37 *1372:A2 0.000146028
55 *110:37 *280:72 0.000302823
56 *1469:I *1292:B1 2.02289e-05
57 *1469:I *110:37 1.82078e-05
58 *105:14 *1287:A2 0.00117541
*RES
1 *1272:Z *110:14 15.08 
2 *110:14 *1287:A2 15.764 
3 *110:14 *110:33 8.604 
4 *110:33 *110:37 5.488 
5 *110:37 *1407:B1 10.596 
6 *110:37 *1292:B1 10.064 
7 *110:33 *1273:A2 21.404 
*END

*D_NET *111 0.0134249
*CONN
*I *1410:A4 I *D gf180mcu_fd_sc_mcu7t5v0__nand4_1
*I *1275:A3 I *D gf180mcu_fd_sc_mcu7t5v0__nand3_1
*I *1281:A4 I *D gf180mcu_fd_sc_mcu7t5v0__nand4_1
*I *1280:A3 I *D gf180mcu_fd_sc_mcu7t5v0__nand3_1
*I *1274:ZN O *D gf180mcu_fd_sc_mcu7t5v0__nor2_2
*CAP
1 *1410:A4 0
2 *1275:A3 0
3 *1281:A4 0
4 *1280:A3 0.000880049
5 *1274:ZN 0.000236918
6 *111:28 0.00164727
7 *111:12 0.000824861
8 *111:8 0.000294556
9 *1280:A3 *1281:A3 3.47988e-05
10 *1280:A3 *1288:B 0.000264875
11 *1280:A3 *1380:A1 0.000566576
12 *1280:A3 *1383:A3 0.000101612
13 *1280:A3 *1542:I 0.000331177
14 *1280:A3 *126:28 0.000383953
15 *1280:A3 *223:12 0.000199473
16 *1280:A3 *223:16 0.000349983
17 *1280:A3 *248:65 2.93577e-05
18 *111:8 *1282:A2 0.00185118
19 *111:8 *1289:A2 0.00019857
20 *111:8 *1554:I 0.00110258
21 *111:8 *112:17 5.66631e-05
22 *111:12 *1276:A2 0.000304753
23 *111:12 *1554:I 0.000560049
24 *111:12 *112:17 0.000449002
25 *111:28 *414:I 6.92484e-05
26 *111:28 *1281:A3 3.08902e-05
27 *111:28 *1289:A2 6.44876e-05
28 *111:28 *1382:A1 0.00106585
29 *111:28 *1383:A2 0
30 *111:28 *1383:A3 1.28156e-05
31 *111:28 *1526:I 2.59984e-05
32 *111:28 *1528:I 0.000104905
33 *111:28 *1553:I 7.20304e-05
34 *111:28 *126:28 5.81992e-05
35 *111:28 *309:23 0.000242167
36 *1275:A2 *111:28 0.000193539
37 *1276:A1 *111:12 6.56014e-05
38 *1377:A1 *1280:A3 1.3758e-05
39 *1461:D *1280:A3 0.000432994
40 *44:10 *1280:A3 0.000181432
41 *98:12 *111:8 0.000122708
*RES
1 *1274:ZN *111:8 14.092 
2 *111:8 *111:12 6.4 
3 *111:12 *111:28 15.84 
4 *111:28 *1280:A3 22.012 
5 *111:28 *1281:A4 4.5 
6 *111:12 *1275:A3 4.5 
7 *111:8 *1410:A4 9 
*END

*D_NET *112 0.00875287
*CONN
*I *1282:A2 I *D gf180mcu_fd_sc_mcu7t5v0__nand2_1
*I *1408:A3 I *D gf180mcu_fd_sc_mcu7t5v0__oai31_1
*I *1276:A2 I *D gf180mcu_fd_sc_mcu7t5v0__nor2_1
*I *1275:ZN O *D gf180mcu_fd_sc_mcu7t5v0__nand3_1
*CAP
1 *1282:A2 0.00097073
2 *1408:A3 0.000237755
3 *1276:A2 0.000189696
4 *1275:ZN 0
5 *112:17 0.00128257
6 *112:6 0.000263785
7 *1276:A2 *1252:I 9.45938e-05
8 *1282:A2 *415:I 5.90327e-05
9 *1282:A2 *1252:I 7.8279e-05
10 *1282:A2 *1274:A2 0.000642033
11 *1282:A2 *1279:A2 4.76792e-05
12 *1282:A2 *1283:A1 4.47665e-05
13 *1282:A2 *1283:A2 9.23308e-06
14 *1282:A2 *1289:A2 0.00013178
15 *1282:A2 *1297:A1 9.89359e-05
16 *1282:A2 *1297:A2 0.000412649
17 *1282:A2 *345:40 7.24161e-06
18 *1408:A3 *1299:A2 0.000151432
19 *1408:A3 *1375:A1 0.000192577
20 *1408:A3 *1375:A2 0.000192577
21 *1408:A3 *1488:I 0.000108913
22 *1408:A3 *345:25 2.65978e-05
23 *112:17 *1252:I 0.000100689
24 *1276:A1 *1276:A2 6.3983e-05
25 *1410:A3 *1408:A3 0.000531182
26 *1464:D *1282:A2 7.83779e-05
27 *1541:I *1282:A2 2.57058e-06
28 *99:12 *1282:A2 7.1606e-05
29 *111:8 *1282:A2 0.00185118
30 *111:8 *112:17 5.66631e-05
31 *111:12 *1276:A2 0.000304753
32 *111:12 *112:17 0.000449002
*RES
1 *1275:ZN *112:6 9 
2 *112:6 *1276:A2 10.596 
3 *112:6 *112:17 1.292 
4 *112:17 *1408:A3 11.812 
5 *112:17 *1282:A2 18.196 
*END

*D_NET *113 0.00630963
*CONN
*I *1285:A2 I *D gf180mcu_fd_sc_mcu7t5v0__oai21_1
*I *1298:A1 I *D gf180mcu_fd_sc_mcu7t5v0__or3_1
*I *1300:A1 I *D gf180mcu_fd_sc_mcu7t5v0__aoi211_2
*I *1278:A3 I *D gf180mcu_fd_sc_mcu7t5v0__nor3_1
*I *1277:ZN O *D gf180mcu_fd_sc_mcu7t5v0__nand3_1
*CAP
1 *1285:A2 0
2 *1298:A1 2.28868e-05
3 *1300:A1 0.000170208
4 *1278:A3 0
5 *1277:ZN 0.000369244
6 *113:16 0.000270277
7 *113:10 0.000470673
8 *113:6 0.00071696
9 *1298:A1 *1466:CLK 0.000137785
10 *1298:A1 *123:45 5.71374e-05
11 *1300:A1 *1300:A2 3.38043e-05
12 *1300:A1 *1413:B2 1.32647e-05
13 *1300:A1 *127:12 0.000194051
14 *113:6 *1285:B 1.23313e-05
15 *113:6 *1286:A2 6.34886e-05
16 *113:6 *1342:B 0
17 *113:6 *1463:RN 5.9622e-05
18 *113:10 *350:I 0.000534842
19 *113:10 *1278:A1 0.00181982
20 *113:10 *228:24 0.000257276
21 *113:16 *350:I 4.50311e-05
22 *113:16 *1278:A1 0.000314588
23 *113:16 *1407:C 2.62889e-05
24 *113:16 *127:12 5.71374e-05
25 *1278:A2 *1300:A1 3.2804e-06
26 *1415:A1 *113:6 0.00053565
27 *1415:A1 *113:10 0.000108609
28 *1463:D *113:6 0
29 *44:10 *113:16 1.15275e-05
30 *101:16 *113:6 3.84832e-06
*RES
1 *1277:ZN *113:6 7.92 
2 *113:6 *113:10 10.2 
3 *113:10 *113:16 5.716 
4 *113:16 *1278:A3 4.5 
5 *113:16 *1300:A1 5.792 
6 *113:10 *1298:A1 9.38 
7 *113:6 *1285:A2 4.5 
*END

*D_NET *114 0.00492805
*CONN
*I *1412:A2 I *D gf180mcu_fd_sc_mcu7t5v0__aoi22_1
*I *1279:ZN O *D gf180mcu_fd_sc_mcu7t5v0__nor2_1
*CAP
1 *1412:A2 0.0015896
2 *1279:ZN 0.0015896
3 *1412:A2 *1252:I 0.00046952
4 *1412:A2 *1279:A2 0.000293635
5 *1412:A2 *1409:B1 0.000181539
6 *1412:A2 *1412:B2 0.000132933
7 *1412:A2 *344:27 0.00013774
8 *1275:A1 *1412:A2 3.29542e-05
9 *99:14 *1412:A2 0.000412999
10 *99:16 *1412:A2 8.75225e-05
*RES
1 *1279:ZN *1412:A2 34.98 
*END

*D_NET *115 0.00163086
*CONN
*I *1288:A2 I *D gf180mcu_fd_sc_mcu7t5v0__aoi21_1
*I *1280:ZN O *D gf180mcu_fd_sc_mcu7t5v0__nand3_1
*CAP
1 *1288:A2 0.000406147
2 *1280:ZN 0.000406147
3 *1288:A2 *1259:I 0.000475741
4 *1288:A2 *1280:A1 0.000246212
5 *1288:A2 *1288:B 7.61504e-05
6 *1280:A2 *1288:A2 2.0468e-05
*RES
1 *1280:ZN *1288:A2 30.04 
*END

*D_NET *116 0.0150174
*CONN
*I *1283:A1 I *D gf180mcu_fd_sc_mcu7t5v0__nand2_1
*I *1384:A1 I *D gf180mcu_fd_sc_mcu7t5v0__oai21_1
*I *1380:A1 I *D gf180mcu_fd_sc_mcu7t5v0__nor2_1
*I *1281:ZN O *D gf180mcu_fd_sc_mcu7t5v0__nand4_1
*CAP
1 *1283:A1 0.000999511
2 *1384:A1 0.000429808
3 *1380:A1 8.55752e-05
4 *1281:ZN 0.000199617
5 *116:20 0.00154336
6 *1283:A1 *1274:A1 0.000123066
7 *1283:A1 *1283:A2 7.24161e-06
8 *1283:A1 *1375:A3 0.00224017
9 *1283:A1 *1601:I 8.44301e-05
10 *1283:A1 *225:8 0.000359647
11 *1283:A1 *225:14 1.31444e-05
12 *1283:A1 *296:116 0.000307581
13 *1380:A1 *1382:A1 8.0017e-05
14 *1380:A1 *288:32 0.000350818
15 *1384:A1 *414:I 4.6788e-05
16 *1384:A1 *1384:B 0.000282861
17 *1384:A1 *126:28 0.00133916
18 *1384:A1 *296:116 0.000152982
19 *116:20 *1281:A1 0.000122838
20 *116:20 *1382:A1 2.32629e-05
21 *116:20 *1465:RN 8.9253e-05
22 *116:20 *306:8 4.09314e-05
23 *1280:A3 *1380:A1 0.000566576
24 *1282:A2 *1283:A1 4.47665e-05
25 *1415:A1 *1283:A1 0.000127407
26 *1462:D *1283:A1 0.000553813
27 *1462:D *1384:A1 0.000181174
28 *1462:D *116:20 1.3758e-05
29 *1464:D *1283:A1 0.00449109
30 *1464:D *1384:A1 0.000116726
*RES
1 *1281:ZN *1380:A1 10.596 
2 *1281:ZN *116:20 9.988 
3 *116:20 *1384:A1 14.244 
4 *116:20 *1283:A1 24.124 
*END

*D_NET *117 0.000410135
*CONN
*I *1283:A2 I *D gf180mcu_fd_sc_mcu7t5v0__nand2_1
*I *1282:ZN O *D gf180mcu_fd_sc_mcu7t5v0__nand2_1
*CAP
1 *1283:A2 0.000181443
2 *1282:ZN 0.000181443
3 *1283:A2 *1251:I 0
4 *1282:A2 *1283:A2 9.23308e-06
5 *1283:A1 *1283:A2 7.24161e-06
6 *1415:A1 *1283:A2 3.07734e-05
*RES
1 *1282:ZN *1283:A2 10.064 
*END

*D_NET *118 0.0131818
*CONN
*I *1506:I I *D gf180mcu_fd_sc_mcu7t5v0__buf_2
*I *1343:A2 I *D gf180mcu_fd_sc_mcu7t5v0__nand2_1
*I *1284:ZN O *D gf180mcu_fd_sc_mcu7t5v0__nand2_1
*CAP
1 *1506:I 3.9045e-05
2 *1343:A2 0.00208489
3 *1284:ZN 0.000632398
4 *118:14 0.00275634
5 *1343:A2 *350:I 6.60969e-06
6 *1343:A2 *441:I 0.000716971
7 *1343:A2 *1340:B 2.65866e-05
8 *1343:A2 *1344:B 0.000344653
9 *1343:A2 *1365:B2 0
10 *1343:A2 *1444:CLK 0.000782338
11 *1343:A2 *172:22 0
12 *1343:A2 *208:11 1.26466e-05
13 *1343:A2 *229:72 0
14 *1343:A2 *229:83 0.000206341
15 *1343:A2 *229:94 0.000589524
16 *1343:A2 *248:65 1.02876e-05
17 *1343:A2 *248:71 0.000270792
18 *1343:A2 *248:89 3.42922e-06
19 *1343:A2 *272:63 0.00040002
20 *1343:A2 *272:78 0.000230884
21 *1343:A2 *276:14 7.18125e-06
22 *1343:A2 *276:192 3.35106e-05
23 *1343:A2 *327:53 0
24 *1506:I *159:41 0.000160447
25 *1506:I *208:11 6.75124e-05
26 *118:14 *1403:B 0.00026412
27 *118:14 *1405:A1 3.18793e-05
28 *118:14 *159:12 0.000136147
29 *118:14 *159:41 8.25154e-05
30 *118:14 *196:10 0.000893736
31 *118:14 *208:11 3.17196e-05
32 *118:14 *208:19 1.34859e-05
33 *118:14 *229:72 0
34 *118:14 *293:12 0.000719524
35 *118:14 *293:14 0.000314205
36 *118:14 *293:22 0.000687096
37 *1341:A3 *1343:A2 0
38 *1341:A3 *118:14 4.53042e-05
39 *1444:D *1343:A2 0.00032055
40 *96:14 *118:14 0.000259157
*RES
1 *1284:ZN *118:14 20.872 
2 *118:14 *1343:A2 36.864 
3 *118:14 *1506:I 5.032 
*END

*D_NET *119 0.000835692
*CONN
*I *1286:A2 I *D gf180mcu_fd_sc_mcu7t5v0__nand2_1
*I *1285:ZN O *D gf180mcu_fd_sc_mcu7t5v0__oai21_1
*CAP
1 *1286:A2 0.000254532
2 *1285:ZN 0.000254532
3 *1286:A2 *1253:I 7.47363e-05
4 *1286:A2 *1285:A1 7.3227e-05
5 *1286:A2 *1342:B 6.84574e-06
6 *1286:A2 *274:97 4.73582e-05
7 *1286:A2 *274:108 6.09735e-05
8 *113:6 *1286:A2 6.34886e-05
*RES
1 *1285:ZN *1286:A2 10.976 
*END

*D_NET *120 0.0379812
*CONN
*I *360:I I *D gf180mcu_fd_sc_mcu7t5v0__antenna
*I *1289:A1 I *D gf180mcu_fd_sc_mcu7t5v0__nand2_1
*I *359:I I *D gf180mcu_fd_sc_mcu7t5v0__antenna
*I *1400:A1 I *D gf180mcu_fd_sc_mcu7t5v0__oai32_4
*I *399:I I *D gf180mcu_fd_sc_mcu7t5v0__antenna
*I *1287:ZN O *D gf180mcu_fd_sc_mcu7t5v0__nand2_1
*CAP
1 *360:I 0.000346067
2 *1289:A1 0
3 *359:I 1.91374e-05
4 *1400:A1 0.00119629
5 *399:I 0.00031214
6 *1287:ZN 0
7 *120:81 0.0025036
8 *120:71 0.00642806
9 *120:18 0.0023999
10 *120:12 0.002486
11 *120:4 0.00584592
12 *359:I *1246:I 6.19579e-05
13 *359:I *1487:I 0.000141916
14 *360:I *354:I 6.49038e-05
15 *360:I *1250:I 1.61066e-05
16 *360:I *1274:A2 0.000398867
17 *360:I *227:31 0.000265991
18 *399:I *1291:A2 3.90237e-05
19 *399:I *1363:B 9.88736e-06
20 *399:I *1459:CLK 6.51051e-05
21 *399:I *209:6 0.000146353
22 *1400:A1 *1258:I 0.000247885
23 *1400:A1 *1264:I 4.7475e-05
24 *1400:A1 *1402:A3 0
25 *1400:A1 *1486:I 0.000509844
26 *1400:A1 *216:8 0.000340332
27 *1400:A1 *289:14 0.000240286
28 *1400:A1 *290:151 0.000338103
29 *1400:A1 *292:16 0.000665306
30 *1400:A1 *293:54 0.000422015
31 *1400:A1 *308:22 7.38808e-06
32 *120:12 *1367:A2 7.48834e-05
33 *120:12 *1454:RN 0.000531036
34 *120:12 *1578:I 0.000225189
35 *120:12 *1598:I 2.45455e-06
36 *120:12 *246:39 0.000795929
37 *120:12 *248:16 0.000146833
38 *120:12 *273:61 0.000355199
39 *120:12 *280:48 0
40 *120:12 *308:22 0.000254656
41 *120:18 *1578:I 4.22722e-05
42 *120:18 *246:39 0.000211872
43 *120:71 *363:I 0.000190267
44 *120:71 *376:I 3.65527e-05
45 *120:71 *1269:I 0.000195797
46 *120:71 *1284:A1 9.30306e-06
47 *120:71 *1287:A1 1.94282e-05
48 *120:71 *1294:A2 0.000325617
49 *120:71 *1367:A2 5.91841e-05
50 *120:71 *1373:A2 5.82545e-05
51 *120:71 *1374:A1 0.000460321
52 *120:71 *1374:B1 1.59682e-05
53 *120:71 *1379:A1 6.04444e-06
54 *120:71 *1383:A3 9.24223e-05
55 *120:71 *1404:B 0.000533869
56 *120:71 *1505:I 6.03815e-06
57 *120:71 *196:10 0.000743041
58 *120:71 *239:41 0.00132358
59 *120:71 *239:83 0.000141531
60 *120:71 *248:48 2.79905e-06
61 *120:71 *273:10 0
62 *120:71 *274:14 0.000181491
63 *120:71 *276:147 1.11677e-06
64 *120:71 *288:20 4.2123e-05
65 *120:71 *289:118 0
66 *120:71 *289:134 0.000243851
67 *120:81 *1274:A2 3.19219e-05
68 *120:81 *1289:A2 0.000214579
69 *120:81 *1554:I 0.000115733
70 dac_p[2] *120:18 0.00153932
71 *1273:A2 *120:71 0
72 *1287:A2 *120:71 0.000572659
73 *1336:A1 *120:71 7.7824e-05
74 *1396:A1 *120:18 0.00011403
75 *1427:D *1400:A1 4.6555e-05
76 *1445:D *1400:A1 0.00013063
77 *47:8 *399:I 0.000734104
78 *86:20 *120:12 0
79 *86:20 *120:71 8.27687e-05
80 *94:16 *1400:A1 0.000142088
81 *94:16 *120:18 0.000217762
82 *94:37 *1400:A1 0
83 *98:12 *360:I 0.000427014
84 *98:12 *120:81 9.23763e-05
85 *109:24 *1400:A1 0.000286033
86 *109:24 *120:18 0.000261027
*RES
1 *1287:ZN *120:4 4.5 
2 *120:4 *120:12 19.488 
3 *120:12 *120:18 11.948 
4 *120:18 *399:I 11.812 
5 *120:18 *1400:A1 19.564 
6 *120:12 *359:I 13.88 
7 *120:4 *120:71 47.7999 
8 *120:71 *120:81 13.3429 
9 *120:81 *1289:A1 9 
10 *120:81 *360:I 13.332 
*END

*D_NET *121 0.012026
*CONN
*I *1289:A2 I *D gf180mcu_fd_sc_mcu7t5v0__nand2_1
*I *1288:ZN O *D gf180mcu_fd_sc_mcu7t5v0__aoi21_1
*CAP
1 *1289:A2 0.0019313
2 *1288:ZN 0.0019313
3 *1289:A2 *377:I 0.000814298
4 *1289:A2 *415:I 3.13605e-05
5 *1289:A2 *448:I 0.000512365
6 *1289:A2 *1274:A2 0.000331276
7 *1289:A2 *1299:A2 0.000378626
8 *1289:A2 *1381:A2 0.000303713
9 *1289:A2 *1384:B 2.79958e-05
10 *1289:A2 *1457:SETN 2.13331e-05
11 *1289:A2 *1526:I 7.36934e-05
12 *1289:A2 *1528:I 3.02735e-05
13 *1289:A2 *1571:I 8.88506e-05
14 *1289:A2 *296:116 8.67364e-05
15 *1289:A2 *305:8 0
16 *1289:A2 *310:16 5.33137e-05
17 *1275:A1 *1289:A2 1.46823e-05
18 *1280:A2 *1289:A2 1.15244e-05
19 *1282:A2 *1289:A2 0.00013178
20 *1431:D *1289:A2 0.000137178
21 *1460:D *1289:A2 0.00382133
22 *98:12 *1289:A2 9.97597e-05
23 *99:12 *1289:A2 1.63563e-05
24 *99:16 *1289:A2 1.92743e-06
25 *100:16 *1289:A2 1.91917e-06
26 *100:58 *1289:A2 9.25235e-05
27 *100:64 *1289:A2 0.000602981
28 *111:8 *1289:A2 0.00019857
29 *111:28 *1289:A2 6.44876e-05
30 *120:81 *1289:A2 0.000214579
*RES
1 *1288:ZN *1289:A2 46.76 
*END

*D_NET *122 0.0159182
*CONN
*I *1379:A2 I *D gf180mcu_fd_sc_mcu7t5v0__nor3_1
*I *1291:A2 I *D gf180mcu_fd_sc_mcu7t5v0__or2_1
*I *1290:ZN O *D gf180mcu_fd_sc_mcu7t5v0__nor2_1
*CAP
1 *1379:A2 0
2 *1291:A2 0.00145083
3 *1290:ZN 0.00110732
4 *122:20 0.00255815
5 *1291:A2 *1246:I 0.00190166
6 *1291:A2 *1291:A1 1.55629e-05
7 *1291:A2 *1310:B 0
8 *1291:A2 *1354:B 1.28599e-05
9 *1291:A2 *1357:A2 9.26705e-05
10 *1291:A2 *1360:A2 6.66983e-05
11 *1291:A2 *1361:A2 6.85461e-05
12 *1291:A2 *1363:B 6.58724e-06
13 *1291:A2 *1487:I 0.000103642
14 *1291:A2 *289:6 2.01247e-05
15 *1291:A2 *289:99 0.000234141
16 *1291:A2 *296:69 1.40677e-05
17 *122:20 *1290:A1 8.94407e-05
18 *122:20 *1357:A2 6.28798e-05
19 *122:20 *1366:A2 0.000184076
20 *122:20 *1369:A1 0.000505463
21 *122:20 *1369:B 9.17202e-06
22 *122:20 *1372:B 0.000326964
23 *122:20 *1374:A1 2.293e-05
24 *122:20 *1379:A1 0.000831834
25 *122:20 *1503:I 0.000108257
26 *122:20 *1571:I 0.000148664
27 *122:20 *1598:I 0.0031982
28 *122:20 *206:43 0.000176625
29 *122:20 *248:48 0
30 *122:20 *280:52 0.000186796
31 *122:20 *296:36 0.000165766
32 *122:20 *296:46 0.000108912
33 *122:20 *342:30 0.000757566
34 dac_p[3] *1291:A2 1.2018e-05
35 dac_p[3] *122:20 9.59222e-05
36 *399:I *1291:A2 3.90237e-05
37 *1450:D *122:20 0.000773327
38 *1453:D *122:20 5.74961e-05
39 *1454:D *122:20 1.21686e-05
40 *1459:D *1291:A2 8.43583e-05
41 *47:8 *1291:A2 0.000307521
*RES
1 *1290:ZN *122:20 29.764 
2 *122:20 *1291:A2 24.824 
3 *122:20 *1379:A2 4.5 
*END

*D_NET *123 0.0154826
*CONN
*I *1297:A1 I *D gf180mcu_fd_sc_mcu7t5v0__nor2_1
*I *1414:A3 I *D gf180mcu_fd_sc_mcu7t5v0__or4_1
*I *1300:C I *D gf180mcu_fd_sc_mcu7t5v0__aoi211_2
*I *1298:A2 I *D gf180mcu_fd_sc_mcu7t5v0__or3_1
*I *1397:A1 I *D gf180mcu_fd_sc_mcu7t5v0__nor2_2
*I *1402:A1 I *D gf180mcu_fd_sc_mcu7t5v0__nor3_1
*I *1292:ZN O *D gf180mcu_fd_sc_mcu7t5v0__oai22_4
*CAP
1 *1297:A1 0.000732528
2 *1414:A3 2.01998e-05
3 *1300:C 0
4 *1298:A2 0
5 *1397:A1 9.04526e-05
6 *1402:A1 8.8722e-05
7 *1292:ZN 0.000867701
8 *123:65 0.0012385
9 *123:52 0.000581137
10 *123:45 0.000538792
11 *123:16 0.000603446
12 *1297:A1 *415:I 0
13 *1297:A1 *1252:I 0.000123923
14 *1297:A1 *1279:A2 0.000145596
15 *1297:A1 *1297:A2 0.000293135
16 *1297:A1 *1412:B1 0
17 *1297:A1 *1545:I 7.67669e-06
18 *1297:A1 *128:8 6.48311e-06
19 *1297:A1 *226:27 0.000123252
20 *1397:A1 *1366:A2 3.12484e-06
21 *1397:A1 *1404:A2 0.000612329
22 *1397:A1 *302:18 0.000666414
23 *1402:A1 *1404:A2 0.000625019
24 *1402:A1 *340:37 0.000796076
25 *1414:A3 *1375:A3 0.000252062
26 *1414:A3 *296:116 0.000252062
27 *123:16 *1292:B2 4.14908e-05
28 *123:16 *1376:A2 0.000963208
29 *123:16 *1407:B2 2.13442e-05
30 *123:16 *208:15 7.5555e-05
31 *123:16 *208:19 2.97266e-06
32 *123:16 *231:22 0.000538974
33 *123:16 *276:20 4.01696e-05
34 *123:16 *276:46 0.000351738
35 *123:16 *287:10 0
36 *123:16 *340:37 2.6126e-05
37 *123:16 *343:27 0.000305351
38 *123:45 *1248:I 2.76198e-05
39 *123:45 *1349:A1 0
40 *123:45 *1407:C 0.000390944
41 *123:45 *1462:RN 5.31912e-05
42 *123:45 *1466:CLK 5.83289e-05
43 *123:45 *1550:I 0.000538429
44 *123:45 *302:10 0.000422015
45 *123:45 *343:12 0.000355722
46 *123:52 *1300:B 3.5548e-05
47 *123:52 *1466:CLK 2.11799e-05
48 *123:52 *198:26 2.87786e-05
49 *123:65 *415:I 0
50 *123:65 *1300:B 0.000151157
51 *123:65 *1415:A2 2.74753e-05
52 *123:65 *168:35 0
53 *123:65 *211:52 9.88736e-06
54 *123:65 *226:27 8.04664e-05
55 *1282:A2 *1297:A1 9.89359e-05
56 *1298:A1 *123:45 5.71374e-05
57 *1299:B *1297:A1 1.87496e-05
58 *1299:B *123:65 4.64608e-05
59 *1401:A2 *1402:A1 6.44609e-05
60 *1432:D *1297:A1 7.25117e-05
61 *1432:D *123:65 5.27078e-05
62 *1466:D *123:45 0.000419633
63 *1466:D *123:52 0.000409873
64 *1466:D *123:65 0.000407877
65 *96:12 *123:45 0.000597972
*RES
1 *1292:ZN *123:16 18.668 
2 *123:16 *1402:A1 6.704 
3 *123:16 *1397:A1 15.248 
4 *1292:ZN *123:45 10.808 
5 *123:45 *1298:A2 4.5 
6 *123:45 *123:52 1.14 
7 *123:52 *1300:C 4.5 
8 *123:52 *123:65 12.496 
9 *123:65 *1414:A3 14.184 
10 *123:65 *1297:A1 18.288 
*END

*D_NET *124 0.00709395
*CONN
*I *1407:C I *D gf180mcu_fd_sc_mcu7t5v0__oai221_4
*I *1300:A2 I *D gf180mcu_fd_sc_mcu7t5v0__aoi211_2
*I *1296:A2 I *D gf180mcu_fd_sc_mcu7t5v0__nor3_2
*I *1293:Z O *D gf180mcu_fd_sc_mcu7t5v0__or3_1
*CAP
1 *1407:C 0.000476071
2 *1300:A2 0.000257776
3 *1296:A2 0.000797747
4 *1293:Z 0.000768184
5 *124:16 0.00134763
6 *1296:A2 *1273:A1 2.6126e-05
7 *1296:A2 *1296:A1 3.08902e-05
8 *1296:A2 *1296:A3 9.76189e-05
9 *1296:A2 *1375:A2 5.72932e-05
10 *1296:A2 *1412:A1 2.64863e-05
11 *1296:A2 *1412:B1 9.88736e-06
12 *1296:A2 *1413:B2 7.38909e-06
13 *1296:A2 *231:16 0.000305929
14 *1300:A2 *1412:B2 0.000370854
15 *1300:A2 *1413:B2 6.31678e-05
16 *1300:A2 *127:12 6.92047e-06
17 *1300:A2 *208:457 9.83942e-05
18 *1300:A2 *344:27 4.18918e-05
19 *1407:C *350:I 0.000117412
20 *1407:C *1278:A1 1.12388e-05
21 *1407:C *1466:CLK 9.88736e-06
22 *1407:C *1601:I 0
23 *1407:C *198:26 0.000196037
24 *1407:C *248:65 0.000124069
25 *1407:C *343:12 0.000134775
26 *124:16 *376:I 7.39242e-05
27 *124:16 *380:I 3.62916e-06
28 *124:16 *414:I 5.32963e-06
29 *124:16 *1412:B2 7.8766e-05
30 *124:16 *1465:RN 0.000133727
31 *124:16 *208:399 9.7459e-05
32 *124:16 *208:401 5.60994e-05
33 *124:16 *208:457 5.46847e-05
34 *124:16 *231:10 0.000215371
35 *124:16 *239:97 0.000402904
36 *124:16 *288:20 1.88046e-05
37 *1278:A2 *1296:A2 9.61639e-06
38 *1278:A2 *1407:C 7.97597e-05
39 *1300:A1 *1300:A2 3.38043e-05
40 *44:10 *1407:C 2.91579e-05
41 *113:16 *1407:C 2.62889e-05
42 *123:45 *1407:C 0.000390944
*RES
1 *1293:Z *124:16 22.636 
2 *124:16 *1296:A2 11.508 
3 *124:16 *1300:A2 10.976 
4 *1296:A2 *1407:C 22.256 
*END

*D_NET *125 0.0113059
*CONN
*I *1402:A2 I *D gf180mcu_fd_sc_mcu7t5v0__nor3_1
*I *1397:A2 I *D gf180mcu_fd_sc_mcu7t5v0__nor2_2
*I *1383:A3 I *D gf180mcu_fd_sc_mcu7t5v0__nand3_1
*I *1294:ZN O *D gf180mcu_fd_sc_mcu7t5v0__nor2_2
*CAP
1 *1402:A2 0.000292761
2 *1397:A2 0.000546106
3 *1383:A3 0.0013906
4 *1294:ZN 0.00164395
5 *1383:A3 *414:I 5.43483e-05
6 *1383:A3 *1294:A2 0.000279004
7 *1383:A3 *1377:A3 4.28025e-05
8 *1383:A3 *1460:CLK 0.000351431
9 *1383:A3 *1461:CLK 0.00017245
10 *1383:A3 *1542:I 2.23598e-06
11 *1383:A3 *1548:I 0.000511736
12 *1383:A3 *126:10 0.000870784
13 *1383:A3 *126:28 0.000526229
14 *1383:A3 *210:6 2.23477e-05
15 *1383:A3 *279:10 3.90013e-05
16 *1383:A3 *287:33 4.25319e-05
17 *1383:A3 *289:118 0
18 *1397:A2 *1284:A1 0.000149837
19 *1397:A2 *1294:A1 0.000149837
20 *1397:A2 *208:19 0
21 *1397:A2 *274:14 0.000165705
22 *1402:A2 *1428:CLK 8.39112e-05
23 *1402:A2 *192:8 5.25367e-05
24 *1402:A2 *206:14 0.000561259
25 *1402:A2 *208:19 0.000172754
26 *1402:A2 *218:41 7.83779e-05
27 *1402:A2 *293:54 0.000348919
28 *1402:A2 *340:37 0.000348919
29 *1280:A3 *1383:A3 0.000101612
30 *1377:A1 *1383:A3 0.000414869
31 *1383:A1 *1383:A3 0.000314298
32 *1464:D *1383:A3 0.00013063
33 *104:12 *1383:A3 8.0268e-05
34 *108:14 *1402:A2 0.000555533
35 *110:14 *1397:A2 0.000703081
36 *110:14 *1402:A2 0
37 *111:28 *1383:A3 1.28156e-05
38 *120:71 *1383:A3 9.24223e-05
*RES
1 *1294:ZN *1383:A3 31.984 
2 *1294:ZN *1397:A2 11.736 
3 *1397:A2 *1402:A2 22.104 
*END

*D_NET *126 0.0120248
*CONN
*I *1296:A3 I *D gf180mcu_fd_sc_mcu7t5v0__nor3_2
*I *1380:A2 I *D gf180mcu_fd_sc_mcu7t5v0__nor2_1
*I *1384:A2 I *D gf180mcu_fd_sc_mcu7t5v0__oai21_1
*I *1381:A3 I *D gf180mcu_fd_sc_mcu7t5v0__nor3_1
*I *1295:Z O *D gf180mcu_fd_sc_mcu7t5v0__or2_1
*CAP
1 *1296:A3 0.000716843
2 *1380:A2 0
3 *1384:A2 0
4 *1381:A3 0.000103253
5 *1295:Z 0.000637476
6 *126:28 0.000854592
7 *126:14 0.000853677
8 *126:10 0.00145666
9 *1296:A3 *1255:I 0.000322044
10 *1296:A3 *1296:A1 8.55327e-05
11 *1296:A3 *1516:I 8.84331e-05
12 *1296:A3 *1601:I 5.72625e-05
13 *1296:A3 *231:10 0
14 *1296:A3 *239:47 0.000106635
15 *1296:A3 *239:97 0
16 *1381:A3 *1396:A2 8.23555e-05
17 *126:14 *1465:RN 2.77991e-05
18 *126:14 *1542:I 0.000433454
19 *126:28 *414:I 1.09935e-05
20 *126:28 *1396:A2 0.000235313
21 *126:28 *239:97 4.56663e-06
22 *126:28 *296:116 2.97354e-06
23 *1278:A2 *1296:A3 2.59977e-05
24 *1280:A3 *126:28 0.000383953
25 *1296:A2 *1296:A3 9.76189e-05
26 *1383:A1 *126:10 0.00107845
27 *1383:A3 *126:10 0.000870784
28 *1383:A3 *126:28 0.000526229
29 *1384:A1 *126:28 0.00133916
30 *1458:D *1381:A3 0.000556568
31 *1458:D *126:28 3.19219e-05
32 *1461:D *126:10 5.27305e-05
33 *1464:D *126:28 0.000199473
34 *44:10 *1296:A3 0.000196316
35 *44:10 *126:10 0.000117644
36 *104:12 *126:10 0.00040989
37 *111:28 *126:28 5.81992e-05
*RES
1 *1295:Z *126:10 16.296 
2 *126:10 *126:14 5.64 
3 *126:14 *126:28 21.86 
4 *126:28 *1381:A3 10.444 
5 *126:28 *1384:A2 9 
6 *126:14 *1380:A2 4.5 
7 *126:10 *1296:A3 14.32 
*END

*D_NET *127 0.00626135
*CONN
*I *1545:I I *D gf180mcu_fd_sc_mcu7t5v0__clkbuf_1
*I *1297:A2 I *D gf180mcu_fd_sc_mcu7t5v0__nor2_1
*I *1296:ZN O *D gf180mcu_fd_sc_mcu7t5v0__nor3_2
*CAP
1 *1545:I 8.58531e-05
2 *1297:A2 8.69681e-05
3 *1296:ZN 0.000985128
4 *127:12 0.00115795
5 *1297:A2 *1252:I 3.01983e-05
6 *1545:I *271:8 4.94368e-05
7 *127:12 *415:I 9.39946e-05
8 *127:12 *1300:B 0.000107555
9 *127:12 *1413:A2 0.000294258
10 *127:12 *1413:B2 3.45116e-05
11 *127:12 *128:8 0.000282496
12 *127:12 *198:26 0.00159133
13 *127:12 *208:457 5.72932e-05
14 *127:12 *271:8 0.000295705
15 *1278:A2 *127:12 0
16 *1282:A2 *1297:A2 0.000412649
17 *1297:A1 *1297:A2 0.000293135
18 *1297:A1 *1545:I 7.67669e-06
19 *1300:A1 *127:12 0.000194051
20 *1300:A2 *127:12 6.92047e-06
21 *1414:A2 *127:12 0.000137106
22 *44:10 *127:12 0
23 *113:16 *127:12 5.71374e-05
*RES
1 *1296:ZN *127:12 13.772 
2 *127:12 *1297:A2 14.64 
3 *127:12 *1545:I 5.108 
*END

*D_NET *128 0.00130053
*CONN
*I *1409:A2 I *D gf180mcu_fd_sc_mcu7t5v0__oai22_1
*I *1413:A2 I *D gf180mcu_fd_sc_mcu7t5v0__oai22_1
*I *1297:ZN O *D gf180mcu_fd_sc_mcu7t5v0__nor2_1
*CAP
1 *1409:A2 0
2 *1413:A2 0.000160568
3 *1297:ZN 0.000185747
4 *128:8 0.000346315
5 *1413:A2 *1409:B2 1.47758e-05
6 *1297:A1 *128:8 6.48311e-06
7 *1414:A2 *1413:A2 9.88736e-06
8 *127:12 *1413:A2 0.000294258
9 *127:12 *128:8 0.000282496
*RES
1 *1297:ZN *128:8 5.868 
2 *128:8 *1413:A2 5.792 
3 *128:8 *1409:A2 4.5 
*END

*D_NET *129 0.00209235
*CONN
*I *1301:A2 I *D gf180mcu_fd_sc_mcu7t5v0__aoi22_1
*I *1298:Z O *D gf180mcu_fd_sc_mcu7t5v0__or3_1
*CAP
1 *1301:A2 0.000336464
2 *1298:Z 0.000336464
3 *1301:A2 *1301:B1 1.26428e-05
4 *1301:A2 *1301:B2 2.04646e-05
5 *1301:A2 *1349:A1 1.24754e-05
6 *1301:A2 *1415:B 0.000304411
7 *1301:A2 *1466:CLK 0.000128923
8 *1301:A2 *168:10 1.49619e-05
9 *1301:A2 *272:125 8.36287e-05
10 *1301:A2 *310:16 0.000189693
11 *1301:A2 *344:27 0.000369664
12 *1433:D *1301:A2 0.000275447
13 *1434:D *1301:A2 7.11102e-06
*RES
1 *1298:Z *1301:A2 21.496 
*END

*D_NET *130 0.00662359
*CONN
*I *1301:B1 I *D gf180mcu_fd_sc_mcu7t5v0__aoi22_1
*I *1299:ZN O *D gf180mcu_fd_sc_mcu7t5v0__oai21_1
*CAP
1 *1301:B1 0.00100189
2 *1299:ZN 0.00100189
3 *1301:B1 *377:I 0.000127419
4 *1301:B1 *378:I 0.000276601
5 *1301:B1 *1274:A1 0.000119732
6 *1301:B1 *1415:B 3.19167e-06
7 *1301:B1 *1433:CLK 0.000724106
8 *1301:B1 *214:41 0.000154443
9 *443:I *1301:B1 0.00151674
10 *1299:B *1301:B1 0.000147001
11 *1301:A2 *1301:B1 1.26428e-05
12 *1434:D *1301:B1 2.11862e-05
13 *98:12 *1301:B1 0.00151674
*RES
1 *1299:ZN *1301:B1 29.476 
*END

*D_NET *131 0.00295212
*CONN
*I *1415:B I *D gf180mcu_fd_sc_mcu7t5v0__aoi21_1
*I *1301:B2 I *D gf180mcu_fd_sc_mcu7t5v0__aoi22_1
*I *1300:ZN O *D gf180mcu_fd_sc_mcu7t5v0__aoi211_2
*CAP
1 *1415:B 0.00025776
2 *1301:B2 7.25126e-05
3 *1300:ZN 0.00021802
4 *131:12 0.000548292
5 *1301:B2 *378:I 3.5555e-05
6 *1301:B2 *272:117 8.5629e-06
7 *1415:B *1349:A1 5.02107e-05
8 *1415:B *1349:A2 0.000103844
9 *1415:B *1415:A2 1.76797e-05
10 *1415:B *272:117 7.45328e-07
11 *131:12 *1346:A1 0.000131265
12 *131:12 *1349:A2 0.000289247
13 *131:12 *1415:A2 0.000572672
14 *131:12 *272:117 6.48034e-06
15 *131:12 *344:27 0.000229456
16 *1301:A2 *1301:B2 2.04646e-05
17 *1301:A2 *1415:B 0.000304411
18 *1301:B1 *1415:B 3.19167e-06
19 *1433:D *1415:B 8.17471e-05
*RES
1 *1300:ZN *131:12 16.236 
2 *131:12 *1301:B2 5.032 
3 *131:12 *1415:B 6.704 
*END

*D_NET *132 0.0090922
*CONN
*I *1359:A1 I *D gf180mcu_fd_sc_mcu7t5v0__aoi211_2
*I *1322:A1 I *D gf180mcu_fd_sc_mcu7t5v0__aoi21_1
*I *1347:A2 I *D gf180mcu_fd_sc_mcu7t5v0__aoi211_2
*I *1303:A2 I *D gf180mcu_fd_sc_mcu7t5v0__aoi21_1
*I *1302:Z O *D gf180mcu_fd_sc_mcu7t5v0__and2_1
*CAP
1 *1359:A1 0.00016845
2 *1322:A1 0
3 *1347:A2 0.000229849
4 *1303:A2 0.000158666
5 *1302:Z 0.000119359
6 *132:16 0.000864657
7 *132:14 0.000525646
8 *132:12 0.000337314
9 *1303:A2 *1303:A1 1.55387e-05
10 *1303:A2 *1306:A1 0.000123583
11 *1303:A2 *1417:CLK 2.6126e-05
12 *1303:A2 *1495:I 5.39012e-05
13 *1347:A2 *1310:B 0.000377707
14 *1347:A2 *1591:I 0.00124021
15 *1347:A2 *261:8 0.000425038
16 *1347:A2 *285:51 0.000865346
17 *1359:A1 *1317:A2 0.000137776
18 *1359:A1 *1322:A2 1.80877e-05
19 *1359:A1 *1360:A2 0.000112573
20 *1359:A1 *1437:RN 0.000589197
21 *132:12 *1318:A1 6.57525e-05
22 *132:12 *1324:A2 4.07251e-05
23 *132:12 *1360:A2 0.000169195
24 *132:12 *143:14 6.31034e-05
25 *132:12 *143:31 5.37472e-05
26 *132:12 *328:60 0.00012749
27 *132:12 *333:22 7.33578e-06
28 *132:14 *1322:A2 4.29e-05
29 *132:14 *1437:RN 6.67291e-05
30 *132:16 *1313:B 0.000213014
31 *132:16 *1322:A2 4.58601e-06
32 *132:16 *1417:CLK 0.000801221
33 *132:16 *1437:RN 0.000204913
34 *132:16 *143:14 0.000109887
35 *132:16 *220:6 0.000732578
*RES
1 *1302:Z *132:12 15.02 
2 *132:12 *132:14 0.532 
3 *132:14 *132:16 5.396 
4 *132:16 *1303:A2 5.64 
5 *132:16 *1347:A2 17.832 
6 *132:14 *1322:A1 4.5 
7 *132:12 *1359:A1 6.552 
*END

*D_NET *133 0.00545923
*CONN
*I *1306:A1 I *D gf180mcu_fd_sc_mcu7t5v0__oai21_1
*I *1303:ZN O *D gf180mcu_fd_sc_mcu7t5v0__aoi21_1
*CAP
1 *1306:A1 0.000421218
2 *1303:ZN 0.000421218
3 *1306:A1 *353:I 0.000475698
4 *1306:A1 *404:I 2.88612e-05
5 *1306:A1 *1303:A1 7.83779e-05
6 *1306:A1 *1303:B 8.08626e-05
7 *1306:A1 *1386:S 1.81333e-05
8 *1306:A1 *1416:CLK 0.000259515
9 *1306:A1 *1417:CLK 0.000801221
10 *1306:A1 *1436:RN 0.000362608
11 *1306:A1 *220:6 8.55327e-05
12 *1306:A1 *220:17 0.000931076
13 *1306:A1 *241:62 4.07337e-05
14 *1306:A1 *241:88 0.000253072
15 *1306:A1 *269:65 1.97747e-05
16 *1303:A2 *1306:A1 0.000123583
17 *1417:D *1306:A1 0.000298446
18 *1435:D *1306:A1 0.000759294
*RES
1 *1303:ZN *1306:A1 25.524 
*END

*D_NET *134 0.0162807
*CONN
*I *1306:B I *D gf180mcu_fd_sc_mcu7t5v0__oai21_1
*I *1304:ZN O *D gf180mcu_fd_sc_mcu7t5v0__nand2_1
*CAP
1 *1306:B 0
2 *1304:ZN 0.00743109
3 *134:26 0.00743109
4 *134:26 *404:I 0.000143199
5 *134:26 *1314:A1 5.957e-05
6 *134:26 *1426:CLK 3.12138e-06
7 *134:26 *1598:I 1.22634e-05
8 *134:26 *187:24 0.00101001
9 *134:26 *289:14 0.000111525
10 *134:26 *332:40 7.87786e-05
*RES
1 *1304:ZN *134:26 45.7788 
2 *134:26 *1306:B 4.5 
*END

*D_NET *135 0.0141287
*CONN
*I *1502:I I *D gf180mcu_fd_sc_mcu7t5v0__dlyb_1
*I *1501:I I *D gf180mcu_fd_sc_mcu7t5v0__dlyb_1
*I *1305:ZN O *D gf180mcu_fd_sc_mcu7t5v0__oai21_1
*CAP
1 *1502:I 0.00061566
2 *1501:I 0.00208346
3 *1305:ZN 0
4 *135:4 0.00269912
5 *1501:I *348:I 6.74954e-06
6 *1501:I *1305:A1 0.000167205
7 *1501:I *1360:A2 0.00122618
8 *1501:I *1372:A2 0.000116986
9 *1501:I *1374:B2 2.40179e-06
10 *1501:I *1470:I 3.38043e-05
11 *1501:I *1549:I 9.17202e-06
12 *1501:I *166:26 0.000854484
13 *1501:I *168:28 0.00193662
14 *1501:I *244:39 9.88736e-06
15 *1501:I *301:10 0.000412884
16 *1502:I *412:I 0.000137528
17 *1502:I *429:I 1.43674e-05
18 *1502:I *1305:A2 8.25105e-05
19 *1502:I *1305:B 1.26143e-05
20 *1502:I *1331:A1 3.96688e-05
21 *1502:I *1338:A2 0.000471354
22 *1502:I *1344:A2 0.000198942
23 *1502:I *1349:A1 4.2318e-06
24 *1502:I *1372:A2 6.40555e-06
25 *1502:I *1374:B2 0.00115841
26 *1502:I *274:155 2.85617e-05
27 *1502:I *312:14 4.46903e-06
28 *1444:D *1502:I 0.000140167
29 *109:24 *1501:I 0.00165483
*RES
1 *1305:ZN *135:4 4.5 
2 *135:4 *1501:I 43.02 
3 *135:4 *1502:I 19.352 
*END

*D_NET *136 0.00813556
*CONN
*I *1350:A2 I *D gf180mcu_fd_sc_mcu7t5v0__aoi211_1
*I *1308:A2 I *D gf180mcu_fd_sc_mcu7t5v0__aoi21_1
*I *1347:B I *D gf180mcu_fd_sc_mcu7t5v0__aoi211_2
*I *1307:Z O *D gf180mcu_fd_sc_mcu7t5v0__and3_1
*CAP
1 *1350:A2 0.000162093
2 *1308:A2 0.000187567
3 *1347:B 0.00112279
4 *1307:Z 0.00084715
5 *136:32 0.000625297
6 *1308:A2 *1308:A1 1.17512e-05
7 *1308:A2 *1351:A2 6.68223e-05
8 *1308:A2 *269:29 0
9 *1347:B *1347:A1 1.53696e-05
10 *1347:B *1347:C 2.60034e-05
11 *1347:B *1353:A1 0.00101486
12 *1347:B *1353:C 2.79e-05
13 *1347:B *1354:A2 0.000193933
14 *1347:B *1537:I 4.17433e-06
15 *1347:B *170:30 4.44618e-05
16 *1347:B *219:10 0.00113897
17 *1347:B *277:63 0
18 *1347:B *289:14 0.000117344
19 *1350:A2 *1308:A1 1.55463e-05
20 *1350:A2 *1351:A2 0.000403749
21 *136:32 *1310:B 0.000418101
22 *136:32 *1347:C 4.58601e-06
23 *136:32 *1351:A2 2.59409e-05
24 *136:32 *1494:I 4.94368e-05
25 *136:32 *261:8 0.000245008
26 *136:32 *276:91 0.000223476
27 *1307:A2 *1347:B 0.00114323
28 *1398:S *1350:A2 0
*RES
1 *1307:Z *1347:B 26.588 
2 *1347:B *136:32 16.844 
3 *136:32 *1308:A2 5.564 
4 *136:32 *1350:A2 5.792 
*END

*D_NET *137 0.00395463
*CONN
*I *1310:A2 I *D gf180mcu_fd_sc_mcu7t5v0__oai21_1
*I *1308:ZN O *D gf180mcu_fd_sc_mcu7t5v0__aoi21_1
*CAP
1 *1310:A2 0.000496672
2 *1308:ZN 0.000496672
3 *1310:A2 *410:I 1.37014e-05
4 *1310:A2 *1310:A1 0.000212323
5 *1310:A2 *1378:A2 0.000589761
6 *1310:A2 *1395:A2 0.000281684
7 *1310:A2 *263:10 0.000235767
8 *1310:A2 *264:8 0.000341303
9 *1310:A2 *269:10 2.49387e-05
10 *1310:A2 *269:44 0.00056558
11 *1310:A2 *276:91 0.000222201
12 *1310:A2 *285:57 8.13942e-07
13 *1436:D *1310:A2 0.000282902
14 *1445:D *1310:A2 0.000190317
*RES
1 *1308:ZN *1310:A2 33.536 
*END

*D_NET *138 0.0086158
*CONN
*I *1310:B I *D gf180mcu_fd_sc_mcu7t5v0__oai21_1
*I *1309:ZN O *D gf180mcu_fd_sc_mcu7t5v0__nand2_1
*CAP
1 *1310:B 0.000637162
2 *1309:ZN 0.000637162
3 *1310:B *1291:A1 1.32067e-05
4 *1310:B *1310:A1 8.69084e-05
5 *1310:B *1348:A2 0.00351248
6 *1310:B *1351:A2 7.70345e-05
7 *1310:B *1426:RN 2.88786e-05
8 *1310:B *261:8 0.000900642
9 *1310:B *263:10 3.23898e-05
10 *1310:B *269:29 0.000239075
11 *1310:B *285:51 0.000740433
12 *1291:A2 *1310:B 0
13 *1347:A2 *1310:B 0.000377707
14 *1436:D *1310:B 6.50518e-06
15 *1445:D *1310:B 0.000908112
16 *136:32 *1310:B 0.000418101
*RES
1 *1309:ZN *1310:B 30.768 
*END

*D_NET *139 0.00440582
*CONN
*I *1400:A2 I *D gf180mcu_fd_sc_mcu7t5v0__oai32_4
*I *1373:A1 I *D gf180mcu_fd_sc_mcu7t5v0__aoi21_1
*I *1311:ZN O *D gf180mcu_fd_sc_mcu7t5v0__nor2_2
*CAP
1 *1400:A2 0.00052598
2 *1373:A1 0.000150631
3 *1311:ZN 0.000676611
4 *1373:A1 *1361:A2 6.59223e-05
5 *1373:A1 *1549:I 0.000487527
6 *1373:A1 *289:99 0.000176491
7 *1373:A1 *302:27 0.000215304
8 *1400:A2 *1270:A2 6.00969e-05
9 *1400:A2 *1572:I 0.000135954
10 *1400:A2 *230:41 3.24017e-05
11 *1400:A2 *290:151 2.41778e-05
12 *1400:A2 *291:79 0.000182957
13 *1400:A2 *340:37 0.00017806
14 *1311:A2 *1400:A2 0.000367247
15 *1400:B2 *1400:A2 0.000937929
16 *1428:D *1400:A2 0.00018853
*RES
1 *1311:ZN *1373:A1 11.128 
2 *1311:ZN *1400:A2 23.548 
*END

*D_NET *140 0.0108223
*CONN
*I *1353:A2 I *D gf180mcu_fd_sc_mcu7t5v0__aoi221_2
*I *1313:A2 I *D gf180mcu_fd_sc_mcu7t5v0__aoi21_1
*I *1350:B I *D gf180mcu_fd_sc_mcu7t5v0__aoi211_1
*I *1312:Z O *D gf180mcu_fd_sc_mcu7t5v0__and3_1
*CAP
1 *1353:A2 0
2 *1313:A2 0.000932264
3 *1350:B 0.000628785
4 *1312:Z 0.000153445
5 *140:25 0.000932264
6 *140:12 0.000782229
7 *1313:A2 *404:I 0.000144851
8 *1313:A2 *1316:A1 0.000793094
9 *1313:A2 *1327:A1 0.000161313
10 *1313:A2 *1328:B 9.11373e-05
11 *1313:A2 *1353:C 0.00104566
12 *1313:A2 *1480:I 1.56976e-05
13 *1313:A2 *229:51 0.000682733
14 *1313:A2 *292:8 0
15 *1313:A2 *292:78 0.000245644
16 *1313:A2 *330:8 0.000399782
17 *1350:B *1445:RN 0.000228585
18 *1350:B *1446:RN 0.000133398
19 *1350:B *1467:RN 2.5879e-05
20 *1350:B *1519:I 0.000734287
21 *1350:B *1520:I 4.2733e-05
22 *1350:B *168:28 0.000373321
23 *1350:B *170:30 1.95512e-05
24 *1350:B *204:8 0.0003799
25 *1350:B *240:23 0
26 *1350:B *312:29 5.15292e-05
27 *1350:B *328:16 0.000143734
28 *140:12 *1353:B1 8.39178e-05
29 *140:12 *1360:A2 7.15897e-05
30 *140:12 *1520:I 0.000142801
31 *140:12 *170:30 0.000307051
32 *140:12 *243:67 9.49516e-05
33 *1307:A2 *1350:B 0.000351052
34 *1307:A2 *140:12 0.000491669
35 *95:8 *1350:B 0.000137498
*RES
1 *1312:Z *140:12 11.508 
2 *140:12 *1350:B 15.688 
3 *140:12 *140:25 4.5 
4 *140:25 *1313:A2 22.696 
5 *140:25 *1353:A2 4.5 
*END

*D_NET *141 0.00209558
*CONN
*I *1315:A2 I *D gf180mcu_fd_sc_mcu7t5v0__oai21_1
*I *1313:ZN O *D gf180mcu_fd_sc_mcu7t5v0__aoi21_1
*CAP
1 *1315:A2 0.000193494
2 *1313:ZN 0.000193494
3 *1315:A2 *1303:A1 2.73162e-05
4 *1315:A2 *1315:B 0.000685328
5 *1315:A2 *1327:A1 0.000343551
6 *1315:A2 *1327:A2 7.67669e-06
7 *1315:A2 *1328:B 2.52095e-05
8 *1315:A2 *269:65 0.00061951
*RES
1 *1313:ZN *1315:A2 20.888 
*END

*D_NET *142 0.00832141
*CONN
*I *1315:B I *D gf180mcu_fd_sc_mcu7t5v0__oai21_1
*I *1314:ZN O *D gf180mcu_fd_sc_mcu7t5v0__nand2_1
*CAP
1 *1315:B 0.000414883
2 *1314:ZN 0.000414883
3 *1315:B *1303:A1 1.47743e-05
4 *1315:B *1591:I 3.95687e-05
5 *1315:B *269:44 0.000151949
6 *1315:B *269:65 0.000863418
7 *1315:B *276:91 0.000537403
8 *1315:B *276:114 0.00383582
9 *1315:B *289:25 0.000587483
10 *1315:B *289:38 0.000606155
11 dout_valid *1315:B 5.3579e-05
12 *1315:A2 *1315:B 0.000685328
13 *7:28 *1315:B 0.000116161
*RES
1 *1314:ZN *1315:B 29.248 
*END

*D_NET *143 0.0123541
*CONN
*I *1365:A1 I *D gf180mcu_fd_sc_mcu7t5v0__aoi221_2
*I *1317:A2 I *D gf180mcu_fd_sc_mcu7t5v0__and2_1
*I *1353:B1 I *D gf180mcu_fd_sc_mcu7t5v0__aoi221_2
*I *1316:Z O *D gf180mcu_fd_sc_mcu7t5v0__and2_1
*CAP
1 *1365:A1 0.00049612
2 *1317:A2 9.2696e-05
3 *1353:B1 0.000277192
4 *1316:Z 0.000370713
5 *143:31 0.00078427
6 *143:14 0.000843358
7 *1317:A2 *392:I 0.000480578
8 *1317:A2 *1302:A1 3.45972e-05
9 *1317:A2 *1356:C 1.866e-05
10 *1317:A2 *1360:A2 0.000137776
11 *1317:A2 *333:22 0.00050705
12 *1353:B1 *1318:A1 9.52854e-05
13 *1353:B1 *1360:A2 0.000187195
14 *1353:B1 *243:67 8.53723e-05
15 *1353:B1 *277:18 0.000348942
16 *1353:B1 *277:27 0.000537422
17 *1365:A1 *392:I 0.000111029
18 *1365:A1 *1322:A2 0
19 *1365:A1 *1326:A1 0.000744636
20 *1365:A1 *1330:A2 0.000534885
21 *1365:A1 *1332:B 3.59097e-05
22 *1365:A1 *1390:I1 0.000146748
23 *1365:A1 *144:52 0.000212188
24 *1365:A1 *267:18 3.43304e-05
25 *1365:A1 *290:34 0.000108227
26 *1365:A1 *335:49 1.2018e-05
27 *143:14 *1313:B 0.000225421
28 *143:14 *1318:A1 0.000238087
29 *143:14 *1322:A2 2.96621e-05
30 *143:14 *1360:A2 2.65844e-05
31 *143:14 *1435:RN 0.000433917
32 *143:14 *328:60 0.00110314
33 *143:31 *1322:A2 1.17286e-05
34 *143:31 *1327:A1 4.33897e-05
35 *143:31 *328:60 3.80516e-05
36 *1302:A2 *1365:A1 0.000294136
37 *1302:A2 *143:31 7.43862e-05
38 *1307:A2 *1353:B1 7.6687e-05
39 *1359:A1 *1317:A2 0.000137776
40 *108:43 *1365:A1 0.00207326
41 *132:12 *143:14 6.31034e-05
42 *132:12 *143:31 5.37472e-05
43 *132:16 *143:14 0.000109887
44 *140:12 *1353:B1 8.39178e-05
*RES
1 *1316:Z *143:14 14.168 
2 *143:14 *1353:B1 12.192 
3 *143:14 *143:31 6.02 
4 *143:31 *1317:A2 15.476 
5 *143:31 *1365:A1 12.784 
*END

*D_NET *144 0.0125106
*CONN
*I *1333:A1 I *D gf180mcu_fd_sc_mcu7t5v0__aoi21_1
*I *1368:A1 I *D gf180mcu_fd_sc_mcu7t5v0__aoi211_2
*I *1356:A2 I *D gf180mcu_fd_sc_mcu7t5v0__aoi221_2
*I *1318:A2 I *D gf180mcu_fd_sc_mcu7t5v0__aoi21_1
*I *1317:Z O *D gf180mcu_fd_sc_mcu7t5v0__and2_1
*CAP
1 *1333:A1 0.000123024
2 *1368:A1 0.000261702
3 *1356:A2 0.000185327
4 *1318:A2 0.000184734
5 *1317:Z 0
6 *144:52 0.00166216
7 *144:25 0.00170235
8 *144:4 0.000424329
9 *1318:A2 *1318:B 9.59587e-06
10 *1318:A2 *1322:B 0.000261917
11 *1318:A2 *1324:A2 0.000242411
12 *1318:A2 *1437:RN 0.000430913
13 *1318:A2 *333:22 2.69281e-06
14 *1333:A1 *1332:B 6.17019e-05
15 *1333:A1 *1335:A2 0.000277827
16 *1333:A1 *1368:C 1.39349e-05
17 *1333:A1 *270:37 0.000303887
18 *1333:A1 *276:192 4.00965e-05
19 *1356:A2 *1356:C 0.000296031
20 *1356:A2 *1360:A2 0
21 *1356:A2 *268:31 0.000290188
22 *1356:A2 *272:59 0.000328042
23 *1368:A1 *1332:B 0.000224087
24 *1368:A1 *1368:A2 2.97523e-05
25 *1368:A1 *1369:A2 1.91917e-06
26 *1368:A1 *266:20 7.45328e-07
27 *1368:A1 *276:192 0.000114633
28 *1368:A1 *327:20 0.000134762
29 *1368:A1 *327:36 2.11616e-05
30 *144:25 *392:I 0.000126273
31 *144:25 *1356:C 0.000262905
32 *144:25 *1437:RN 0.000210124
33 *144:25 *267:18 0.000139937
34 *144:25 *268:31 0.000572306
35 *144:52 *1326:B 5.77573e-05
36 *144:52 *1327:A1 0.000399782
37 *144:52 *1328:B 0.000157703
38 *144:52 *1332:B 0.000575507
39 *144:52 *1365:A2 3.37994e-05
40 *144:52 *147:22 0
41 *144:52 *268:25 5.88577e-05
42 *144:52 *327:8 1.85367e-05
43 *144:52 *327:36 8.0352e-06
44 *144:52 *336:31 3.83835e-06
45 *1365:A1 *144:52 0.000212188
46 *1438:D *1318:A2 0.000152572
47 *1438:D *144:25 0.000243736
48 *108:43 *144:52 0.00164685
*RES
1 *1317:Z *144:4 4.5 
2 *144:4 *1318:A2 15.704 
3 *144:4 *144:25 7.692 
4 *144:25 *1356:A2 10.9 
5 *144:25 *144:52 20.02 
6 *144:52 *1368:A1 11.128 
7 *144:52 *1333:A1 10.52 
*END

*D_NET *145 0.000879523
*CONN
*I *1320:A2 I *D gf180mcu_fd_sc_mcu7t5v0__oai21_1
*I *1318:ZN O *D gf180mcu_fd_sc_mcu7t5v0__aoi21_1
*CAP
1 *1320:A2 0.000307283
2 *1318:ZN 0.000307283
3 *1320:A2 *1318:A1 3.16765e-06
4 *1320:A2 *1324:A2 2.30838e-05
5 *1320:A2 *1437:RN 0
6 *1320:A2 *208:151 2.40935e-05
7 *1320:A2 *289:14 0.000214611
*RES
1 *1318:ZN *1320:A2 19.976 
*END

*D_NET *146 0.0151904
*CONN
*I *1320:B I *D gf180mcu_fd_sc_mcu7t5v0__oai21_1
*I *1319:ZN O *D gf180mcu_fd_sc_mcu7t5v0__nand2_1
*CAP
1 *1320:B 2.58388e-05
2 *1319:ZN 0.00258656
3 *146:36 0.0026124
4 *1320:B *1324:A1 9.00898e-05
5 *146:36 *361:I 0.000288036
6 *146:36 *423:I 1.01183e-05
7 *146:36 *1323:A1 0.0030866
8 *146:36 *1324:A1 3.04039e-05
9 *146:36 *1324:B 0.000247059
10 *146:36 *1328:B 9.75999e-05
11 *146:36 *1393:S 0.000131451
12 *146:36 *1394:I0 7.8878e-05
13 *146:36 *1424:CLK 2.66831e-05
14 *146:36 *1444:RN 1.75581e-05
15 *146:36 *1444:CLK 7.69321e-05
16 *146:36 *1489:I 0.000654768
17 *146:36 *1514:I 0.0003605
18 *146:36 *1532:I 0.000181256
19 *146:36 *1563:I 8.49777e-05
20 *146:36 *212:13 2.06245e-06
21 *146:36 *212:28 0.000134048
22 *146:36 *215:10 2.15773e-05
23 *146:36 *241:88 0.00254266
24 *146:36 *241:111 0.000672124
25 *146:36 *243:79 2.6789e-05
26 *146:36 *267:18 5.87561e-06
27 *146:36 *276:203 5.4345e-05
28 *146:36 *284:24 8.38944e-05
29 *146:36 *284:31 4.0769e-05
30 *146:36 *339:10 0.000194531
31 *1438:D *146:36 0.000723981
32 *1439:D *146:36 0
*RES
1 *1319:ZN *146:36 49.708 
2 *146:36 *1320:B 4.88 
*END

*D_NET *147 0.00598699
*CONN
*I *1368:A2 I *D gf180mcu_fd_sc_mcu7t5v0__aoi211_2
*I *1333:A2 I *D gf180mcu_fd_sc_mcu7t5v0__aoi21_1
*I *1544:I I *D gf180mcu_fd_sc_mcu7t5v0__buf_2
*I *1321:ZN O *D gf180mcu_fd_sc_mcu7t5v0__nor2_4
*CAP
1 *1368:A2 0.000164095
2 *1333:A2 0.000161139
3 *1544:I 0.000735549
4 *1321:ZN 0.000358367
5 *147:22 0.000702415
6 *1333:A2 *441:I 0.000838339
7 *1333:A2 *276:192 0.000337895
8 *1368:A2 *1342:A2 0
9 *1368:A2 *266:20 0.000173392
10 *1368:A2 *327:36 1.2773e-05
11 *1544:I *368:I 0.000227626
12 *1544:I *1365:A2 2.22657e-05
13 *1544:I *243:67 0.000292341
14 *1544:I *268:25 4.62644e-05
15 *1544:I *290:40 0.000292158
16 *147:22 *1365:A2 4.40783e-05
17 *147:22 *243:67 0.000193933
18 *147:22 *266:20 0.000379263
19 *147:22 *327:36 2.70562e-05
20 *1325:A1 *1544:I 0.000829586
21 *1329:A4 *1544:I 8.55327e-05
22 *1341:A1 *1544:I 3.31669e-05
23 *1368:A1 *1368:A2 2.97523e-05
24 *144:52 *147:22 0
*RES
1 *1321:ZN *1544:I 13.484 
2 *1544:I *147:22 7.464 
3 *147:22 *1333:A2 15.856 
4 *147:22 *1368:A2 5.868 
*END

*D_NET *148 0.00314277
*CONN
*I *1324:A2 I *D gf180mcu_fd_sc_mcu7t5v0__oai21_1
*I *1322:ZN O *D gf180mcu_fd_sc_mcu7t5v0__aoi21_1
*CAP
1 *1324:A2 0.000638884
2 *1322:ZN 0.000638884
3 *1324:A2 *1318:A1 0.000653897
4 *1324:A2 *1324:A1 0.000259473
5 *1324:A2 *241:88 0.000607928
6 *1324:A2 *289:14 0
7 *1324:A2 *333:16 0
8 *1324:A2 *333:22 0
9 *1318:A2 *1324:A2 0.000242411
10 *1320:A2 *1324:A2 2.30838e-05
11 *1438:D *1324:A2 3.74839e-05
12 *132:12 *1324:A2 4.07251e-05
*RES
1 *1322:ZN *1324:A2 23.548 
*END

*D_NET *149 0.0104269
*CONN
*I *1324:B I *D gf180mcu_fd_sc_mcu7t5v0__oai21_1
*I *1323:ZN O *D gf180mcu_fd_sc_mcu7t5v0__nand2_1
*CAP
1 *1324:B 0.00197933
2 *1323:ZN 0.00197933
3 *1324:B *361:I 1.23559e-05
4 *1324:B *393:I 3.73535e-05
5 *1324:B *409:I 0.000292967
6 *1324:B *417:I 0.000149295
7 *1324:B *1323:A1 0.00103502
8 *1324:B *1391:I0 0.000362964
9 *1324:B *1420:CLK 0.000483636
10 *1324:B *1421:CLK 0.00035777
11 *1324:B *1442:RN 3.29058e-05
12 *1324:B *1532:I 0.000147143
13 *1324:B *191:20 0.000221927
14 *1324:B *208:205 2.30587e-05
15 *1324:B *208:215 5.47731e-05
16 *1324:B *208:229 0.000237936
17 *1324:B *208:241 0.00080927
18 *1324:B *212:13 0.000604504
19 *1324:B *222:18 4.37559e-05
20 *1324:B *222:33 0.000350411
21 *1324:B *241:88 7.04542e-05
22 *1324:B *241:111 0.00018487
23 *1324:B *322:16 0.000631786
24 *1439:D *1324:B 7.70653e-05
25 *146:36 *1324:B 0.000247059
*RES
1 *1323:ZN *1324:B 38.976 
*END

*D_NET *150 0.00867195
*CONN
*I *1563:I I *D gf180mcu_fd_sc_mcu7t5v0__clkbuf_1
*I *1359:B I *D gf180mcu_fd_sc_mcu7t5v0__aoi211_2
*I *1325:ZN O *D gf180mcu_fd_sc_mcu7t5v0__nor4_4
*CAP
1 *1563:I 0.000496792
2 *1359:B 0.00127155
3 *1325:ZN 0.000774757
4 *1359:B *392:I 2.02783e-05
5 *1359:B *1437:RN 0.000244261
6 *1359:B *153:6 0.000140853
7 *1359:B *170:30 0.000145652
8 *1359:B *208:123 0.000246836
9 *1359:B *208:135 0
10 *1359:B *229:51 0.000889984
11 *1359:B *230:41 0.000489657
12 *1359:B *267:18 0.000134234
13 *1359:B *268:31 1.6848e-05
14 *1359:B *272:59 8.33427e-05
15 *1359:B *335:49 0.000304978
16 *1563:I *392:I 4.27107e-05
17 *1563:I *1324:A1 5.20686e-06
18 *1563:I *1496:I 2.23783e-05
19 *1563:I *267:18 0.00188347
20 *1563:I *289:14 0.000177014
21 *1438:D *1359:B 0.000244261
22 *1438:D *1563:I 0.000317125
23 *94:54 *1359:B 0.00063479
24 *146:36 *1563:I 8.49777e-05
*RES
1 *1325:ZN *1359:B 26.74 
2 *1359:B *1563:I 24.004 
*END

*D_NET *151 0.00349025
*CONN
*I *1328:A2 I *D gf180mcu_fd_sc_mcu7t5v0__oai21_1
*I *1326:ZN O *D gf180mcu_fd_sc_mcu7t5v0__aoi21_1
*CAP
1 *1328:A2 0.000451234
2 *1326:ZN 0.000451234
3 *1328:A2 *1326:A1 0.000386421
4 *1328:A2 *1328:B 0.00102877
5 *1328:A2 *1438:CLK 1.91917e-06
6 *1328:A2 *1440:CLK 4.22731e-05
7 *1328:A2 *208:123 0
8 *1328:A2 *208:135 0.000321275
9 *1328:A2 *221:13 5.09868e-05
10 *1328:A2 *335:49 0.000379274
11 *1439:D *1328:A2 0.000369754
12 *1440:D *1328:A2 7.11102e-06
*RES
1 *1326:ZN *1328:A2 23.776 
*END

*D_NET *152 0.00873917
*CONN
*I *1328:B I *D gf180mcu_fd_sc_mcu7t5v0__oai21_1
*I *1327:ZN O *D gf180mcu_fd_sc_mcu7t5v0__nand2_1
*CAP
1 *1328:B 0.0024957
2 *1327:ZN 0.0024957
3 *1328:B *1309:A1 3.99001e-05
4 *1328:B *1309:A2 1.17512e-05
5 *1328:B *1312:A2 0
6 *1328:B *1316:A1 3.30336e-06
7 *1328:B *1323:A1 0.000111224
8 *1328:B *1327:A1 0.000132465
9 *1328:B *1327:A2 0.000181183
10 *1328:B *1356:C 3.37994e-05
11 *1328:B *1468:I 0.000323121
12 *1328:B *208:123 0
13 *1328:B *208:135 6.57519e-05
14 *1328:B *208:205 5.32963e-06
15 *1328:B *230:41 0
16 *1328:B *268:25 0.000949051
17 *1328:B *277:63 3.49423e-05
18 *1328:B *290:34 0
19 *1328:B *290:40 0
20 *1328:B *330:8 6.44525e-05
21 *1328:B *335:49 0.0001908
22 *1312:A1 *1328:B 1.26723e-05
23 *1313:A2 *1328:B 9.11373e-05
24 *1315:A2 *1328:B 2.52095e-05
25 *1328:A2 *1328:B 0.00102877
26 *1437:D *1328:B 0.000140454
27 *1439:D *1328:B 4.71484e-05
28 *144:52 *1328:B 0.000157703
29 *146:36 *1328:B 9.75999e-05
*RES
1 *1327:ZN *1328:B 35.708 
*END

*D_NET *153 0.00688107
*CONN
*I *1562:I I *D gf180mcu_fd_sc_mcu7t5v0__clkbuf_1
*I *1365:B1 I *D gf180mcu_fd_sc_mcu7t5v0__aoi221_2
*I *1329:ZN O *D gf180mcu_fd_sc_mcu7t5v0__nor4_4
*CAP
1 *1562:I 0.000394676
2 *1365:B1 0.000111204
3 *1329:ZN 0.000196688
4 *153:6 0.000702568
5 *1365:B1 *1331:A1 0.000260718
6 *1365:B1 *172:22 0.000238864
7 *1365:B1 *207:12 4.53009e-05
8 *1562:I *372:I 7.25774e-05
9 *1562:I *1371:A1 5.31007e-05
10 *1562:I *1372:A2 0.000185138
11 *1562:I *159:41 2.96621e-05
12 *1562:I *159:43 9.19179e-05
13 *1562:I *170:30 0.00196182
14 *1562:I *229:72 6.57407e-05
15 *1562:I *312:14 0.000120405
16 *153:6 *1366:A2 0.000412486
17 *153:6 *170:30 0.00156806
18 *153:6 *229:51 0.000188259
19 *153:6 *229:72 4.10312e-05
20 *1359:B *153:6 0.000140853
*RES
1 *1329:ZN *153:6 8.68 
2 *153:6 *1365:B1 14.944 
3 *153:6 *1562:I 9.896 
*END

*D_NET *154 0.00201231
*CONN
*I *1332:A2 I *D gf180mcu_fd_sc_mcu7t5v0__oai21_1
*I *1330:ZN O *D gf180mcu_fd_sc_mcu7t5v0__aoi21_1
*CAP
1 *1332:A2 0.000250389
2 *1330:ZN 0.000250389
3 *1332:A2 *1328:A1 0.000186796
4 *1332:A2 *1330:A1 0
5 *1332:A2 *1330:B 0.000378181
6 *1332:A2 *1362:A2 0.000314363
7 *1332:A2 *327:53 0.000275926
8 *1332:A2 *327:55 0.000254736
9 *1332:A2 *336:16 9.12749e-05
10 *1441:D *1332:A2 1.02578e-05
*RES
1 *1330:ZN *1332:A2 12.344 
*END

*D_NET *155 0.00506613
*CONN
*I *1332:B I *D gf180mcu_fd_sc_mcu7t5v0__oai21_1
*I *1331:ZN O *D gf180mcu_fd_sc_mcu7t5v0__nand2_1
*CAP
1 *1332:B 0.00083609
2 *1331:ZN 0.00083609
3 *1332:B *1335:A2 0.000365447
4 *1332:B *1344:B 4.14866e-05
5 *1332:B *1368:C 0.00112947
6 *1332:B *1390:I1 0.000193727
7 *1332:B *159:41 0.000197178
8 *1332:B *270:37 8.11514e-05
9 *1332:B *274:81 0.000399007
10 *1332:B *274:155 1.3575e-05
11 *1332:B *276:192 7.57013e-05
12 *1332:B *290:34 0
13 *1332:B *327:8 0
14 *1333:A1 *1332:B 6.17019e-05
15 *1365:A1 *1332:B 3.59097e-05
16 *1368:A1 *1332:B 0.000224087
17 *144:52 *1332:B 0.000575507
*RES
1 *1331:ZN *1332:B 26.36 
*END

*D_NET *156 0.00226229
*CONN
*I *1335:A2 I *D gf180mcu_fd_sc_mcu7t5v0__oai21_1
*I *1333:ZN O *D gf180mcu_fd_sc_mcu7t5v0__aoi21_1
*CAP
1 *1335:A2 0.000374158
2 *1333:ZN 0.000374158
3 *1335:A2 *406:I 3.83835e-06
4 *1335:A2 *441:I 0
5 *1335:A2 *1368:C 0.000253849
6 *1335:A2 *1531:I 5.79071e-05
7 *1335:A2 *1532:I 6.39906e-05
8 *1335:A2 *270:37 4.98138e-05
9 *1335:A2 *274:155 9.16609e-05
10 *1335:A2 *276:192 7.21976e-06
11 *1335:A2 *337:43 0.000295859
12 *1332:B *1335:A2 0.000365447
13 *1333:A1 *1335:A2 0.000277827
14 *1422:D *1335:A2 4.65585e-05
*RES
1 *1333:ZN *1335:A2 21.876 
*END

*D_NET *157 0.00397767
*CONN
*I *1335:B I *D gf180mcu_fd_sc_mcu7t5v0__oai21_1
*I *1334:ZN O *D gf180mcu_fd_sc_mcu7t5v0__nand2_1
*CAP
1 *1335:B 0.000814644
2 *1334:ZN 0.000814644
3 *1335:B *355:I 0
4 *1335:B *1323:A1 0
5 *1335:B *1335:A1 2.11567e-05
6 *1335:B *1391:I0 0.000463182
7 *1335:B *1531:I 0.00105135
8 *1335:B *1532:I 0.000185226
9 *1335:B *241:111 0.000147821
10 *1335:B *274:155 0.000159776
11 *1335:B *274:183 0
12 *1335:B *283:8 0.000317494
13 *1442:D *1335:B 2.37605e-06
*RES
1 *1334:ZN *1335:B 34.676 
*END

*D_NET *158 0.00772755
*CONN
*I *1373:A2 I *D gf180mcu_fd_sc_mcu7t5v0__aoi21_1
*I *1336:ZN O *D gf180mcu_fd_sc_mcu7t5v0__nor2_1
*CAP
1 *1373:A2 0.00231879
2 *1336:ZN 0.00231879
3 *1373:A2 *1357:A2 0.000960194
4 *1373:A2 *1372:B 3.00299e-05
5 *1373:A2 *1379:A1 0.000444837
6 *1373:A2 *1598:I 2.4706e-05
7 *1373:A2 *246:14 0.000339795
8 *1373:A2 *272:31 0.000292371
9 *1336:A1 *1373:A2 0.000939785
10 *120:71 *1373:A2 5.82545e-05
*RES
1 *1336:ZN *1373:A2 39.16 
*END

*D_NET *159 0.00939951
*CONN
*I *1368:B I *D gf180mcu_fd_sc_mcu7t5v0__aoi211_2
*I *1371:A2 I *D gf180mcu_fd_sc_mcu7t5v0__aoi211_2
*I *1338:A2 I *D gf180mcu_fd_sc_mcu7t5v0__aoi21_1
*I *1403:B I *D gf180mcu_fd_sc_mcu7t5v0__oai211_1
*I *1337:Z O *D gf180mcu_fd_sc_mcu7t5v0__and3_1
*CAP
1 *1368:B 3.28034e-05
2 *1371:A2 0
3 *1338:A2 0.00020835
4 *1403:B 0.000366086
5 *1337:Z 0.000152057
6 *159:43 0.000267121
7 *159:41 0.000608633
8 *159:12 0.0010352
9 *1338:A2 *1331:A1 4.41305e-05
10 *1338:A2 *1338:A1 5.62809e-05
11 *1338:A2 *1369:A2 0.000411248
12 *1338:A2 *1371:C 0.000807972
13 *1338:A2 *266:20 0.000206333
14 *1338:A2 *338:39 3.77294e-06
15 *1403:B *208:11 8.60808e-05
16 *1403:B *276:20 0.000634279
17 *1403:B *293:12 0.000730111
18 *1403:B *293:14 0.000186106
19 *159:12 *1349:A1 0.000376606
20 *159:12 *229:72 0
21 *159:41 *372:I 0.000165821
22 *159:41 *1305:B 2.67277e-05
23 *159:41 *1349:A1 0.000463338
24 *159:41 *1371:A1 7.83779e-05
25 *159:41 *1372:A2 9.61267e-05
26 *159:41 *208:11 9.84948e-06
27 *159:41 *274:47 0.000234347
28 *159:41 *274:66 8.81341e-06
29 *159:41 *274:81 0.000129627
30 *159:41 *276:8 6.07666e-06
31 *159:41 *312:14 0
32 *159:43 *1371:A1 0.000325296
33 *159:43 *1372:A2 0.000185138
34 *159:43 *312:14 2.05156e-05
35 *1332:B *159:41 0.000197178
36 *1341:A3 *159:12 2.9378e-06
37 *1502:I *1338:A2 0.000471354
38 *1506:I *159:41 0.000160447
39 *1562:I *159:41 2.96621e-05
40 *1562:I *159:43 9.19179e-05
41 *118:14 *1403:B 0.00026412
42 *118:14 *159:12 0.000136147
43 *118:14 *159:41 8.25154e-05
*RES
1 *1337:Z *159:12 6.172 
2 *159:12 *1403:B 17.68 
3 *159:12 *159:41 13.94 
4 *159:41 *159:43 1.14 
5 *159:43 *1338:A2 16.996 
6 *159:43 *1371:A2 4.5 
7 *159:41 *1368:B 4.728 
*END

*D_NET *160 0.00239164
*CONN
*I *1340:A2 I *D gf180mcu_fd_sc_mcu7t5v0__oai21_1
*I *1338:ZN O *D gf180mcu_fd_sc_mcu7t5v0__aoi21_1
*CAP
1 *1340:A2 0.000427694
2 *1338:ZN 0.000427694
3 *1340:A2 *1340:A1 0.000161672
4 *1340:A2 *1443:CLK 0.000360235
5 *1340:A2 *1514:I 0
6 *1340:A2 *248:65 0.000741125
7 *1340:A2 *248:89 0.000273216
*RES
1 *1338:ZN *1340:A2 21.8 
*END

*D_NET *161 0.00047316
*CONN
*I *1340:B I *D gf180mcu_fd_sc_mcu7t5v0__oai21_1
*I *1339:ZN O *D gf180mcu_fd_sc_mcu7t5v0__nand2_1
*CAP
1 *1340:B 0.000134085
2 *1339:ZN 0.000134085
3 *1340:B *350:I 0.000146246
4 *1340:B *248:65 3.21571e-05
5 *1343:A2 *1340:B 2.65866e-05
*RES
1 *1339:ZN *1340:B 18.988 
*END

*D_NET *162 0.00471915
*CONN
*I *1342:A2 I *D gf180mcu_fd_sc_mcu7t5v0__aoi21_1
*I *1371:B I *D gf180mcu_fd_sc_mcu7t5v0__aoi211_2
*I *1341:ZN O *D gf180mcu_fd_sc_mcu7t5v0__nor4_4
*CAP
1 *1342:A2 8.32831e-05
2 *1371:B 0.000596801
3 *1341:ZN 0.000513518
4 *1342:A2 *1369:A2 0.000418394
5 *1342:A2 *1374:B2 0.000252646
6 *1342:A2 *327:20 4.10633e-05
7 *1371:B *1329:A3 9.25001e-05
8 *1371:B *1331:A1 0.000616474
9 *1371:B *1365:B2 0.000131651
10 *1371:B *1368:C 0.000109268
11 *1371:B *1369:A2 1.65939e-05
12 *1371:B *1371:C 7.83779e-05
13 *1371:B *170:30 0.00144388
14 *1371:B *207:12 2.11799e-05
15 *1371:B *266:20 0.00021542
16 *1371:B *274:97 8.80994e-05
17 *1368:A2 *1342:A2 0
*RES
1 *1341:ZN *1371:B 16.068 
2 *1371:B *1342:A2 10.368 
*END

*D_NET *163 0.0143239
*CONN
*I *1344:A2 I *D gf180mcu_fd_sc_mcu7t5v0__oai21_1
*I *1374:B2 I *D gf180mcu_fd_sc_mcu7t5v0__aoi22_1
*I *1342:ZN O *D gf180mcu_fd_sc_mcu7t5v0__aoi21_1
*CAP
1 *1344:A2 0.000451873
2 *1374:B2 0.00162791
3 *1342:ZN 0
4 *163:4 0.00207978
5 *1344:A2 *429:I 0.000146548
6 *1344:A2 *1344:A1 7.98484e-05
7 *1344:A2 *1344:B 6.00687e-06
8 *1344:A2 *1514:I 5.37924e-05
9 *1344:A2 *327:20 1.0477e-05
10 *1344:A2 *338:28 0.000451209
11 *1374:B2 *431:I 0.000413723
12 *1374:B2 *1287:A1 0.000331866
13 *1374:B2 *1305:A1 0.000673659
14 *1374:B2 *1369:A2 0.000153699
15 *1374:B2 *1376:B 0.000223363
16 *1374:B2 *1379:A1 0.000305446
17 *1374:B2 *1407:B2 0.000294367
18 *1374:B2 *1514:I 4.03922e-06
19 *1374:B2 *231:50 0.00111724
20 *1374:B2 *274:47 0.00081545
21 *1374:B2 *274:97 6.31119e-05
22 *1374:B2 *287:20 0.00113918
23 *1374:B2 *287:44 0.00049982
24 *1374:B2 *287:46 0.00038404
25 *1374:B2 *289:134 4.58601e-06
26 *1374:B2 *327:20 0.000103413
27 *1273:A2 *1374:B2 6.384e-05
28 *1287:A2 *1374:B2 7.56055e-05
29 *1342:A2 *1374:B2 0.000252646
30 *1407:A1 *1374:B2 0.000346463
31 *1444:D *1344:A2 0.000165719
32 *1452:D *1374:B2 4.74182e-05
33 *1501:I *1374:B2 2.40179e-06
34 *1502:I *1344:A2 0.000198942
35 *1502:I *1374:B2 0.00115841
36 *105:14 *1374:B2 0.000496682
37 *110:33 *1374:B2 8.13218e-05
*RES
1 *1342:ZN *163:4 4.5 
2 *163:4 *1374:B2 42.184 
3 *163:4 *1344:A2 16.996 
*END

*D_NET *164 0.00377623
*CONN
*I *1344:B I *D gf180mcu_fd_sc_mcu7t5v0__oai21_1
*I *1343:ZN O *D gf180mcu_fd_sc_mcu7t5v0__nand2_1
*CAP
1 *1344:B 0.00038474
2 *1343:ZN 0.00038474
3 *1344:B *1340:A1 0.0011393
4 *1344:B *1344:A1 2.49331e-05
5 *1344:B *1443:CLK 5.19077e-05
6 *1344:B *1444:CLK 3.73215e-05
7 *1344:B *270:16 0.000262814
8 *1344:B *270:37 6.48034e-06
9 *1344:B *276:192 0.000102155
10 *1332:B *1344:B 4.14866e-05
11 *1343:A2 *1344:B 0.000344653
12 *1344:A2 *1344:B 6.00687e-06
13 *1444:D *1344:B 0.000989687
*RES
1 *1343:ZN *1344:B 15.08 
*END

*D_NET *165 0.00928605
*CONN
*I *1504:I I *D gf180mcu_fd_sc_mcu7t5v0__dlyb_1
*I *1503:I I *D gf180mcu_fd_sc_mcu7t5v0__dlyb_1
*I *1345:ZN O *D gf180mcu_fd_sc_mcu7t5v0__nor2_1
*CAP
1 *1504:I 8.19217e-05
2 *1503:I 0.00146831
3 *1345:ZN 0.000172725
4 *165:6 0.00172296
5 *1503:I *1265:I 9.72579e-05
6 *1503:I *1363:B 0
7 *1503:I *1404:B 0
8 *1503:I *1452:CLK 0.000114088
9 *1503:I *1454:CLK 6.08601e-05
10 *1503:I *223:36 3.83835e-06
11 *1503:I *230:41 6.04692e-05
12 *1503:I *265:42 0.0011964
13 *1503:I *296:46 0.00100318
14 *1503:I *299:8 3.45049e-05
15 *1503:I *299:17 5.08863e-05
16 *1504:I *1376:B 0.000982518
17 *1504:I *280:72 0.000982518
18 *165:6 *1345:A1 7.3227e-05
19 *165:6 *223:36 4.11456e-05
20 *165:6 *265:14 9.21341e-05
21 *1450:D *1503:I 0.000545584
22 *1452:D *1503:I 0.000103513
23 *1452:D *165:6 8.92257e-06
24 *1510:I *1503:I 0.0002559
25 *104:12 *1503:I 0
26 *105:14 *1503:I 2.49331e-05
27 *122:20 *1503:I 0.000108257
*RES
1 *1345:ZN *165:6 5.64 
2 *165:6 *1503:I 25.964 
3 *165:6 *1504:I 16.16 
*END

*D_NET *166 0.0364242
*CONN
*I *378:I I *D gf180mcu_fd_sc_mcu7t5v0__antenna
*I *379:I I *D gf180mcu_fd_sc_mcu7t5v0__antenna
*I *1348:B I *D gf180mcu_fd_sc_mcu7t5v0__oai21_1
*I *1346:ZN O *D gf180mcu_fd_sc_mcu7t5v0__nand2_1
*CAP
1 *378:I 0.000550959
2 *379:I 0.00553519
3 *1348:B 0
4 *1346:ZN 0
5 *166:26 0.00494171
6 *166:12 0.0109212
7 *166:6 0.000995286
8 *378:I *377:I 0.000383104
9 *378:I *1415:A2 8.93173e-05
10 *378:I *272:117 0.00105999
11 *166:12 *1346:A1 7.30988e-05
12 *166:12 *1415:A2 4.5102e-05
13 *166:12 *168:28 2.38157e-06
14 *166:12 *168:35 8.20751e-06
15 *166:26 *350:I 0
16 *166:26 *1260:I 0.00264092
17 *166:26 *1346:A1 0
18 *166:26 *1354:A2 0.00558824
19 *166:26 *168:28 0.000165619
20 *166:26 *177:24 9.33972e-05
21 *166:26 *229:22 3.54713e-05
22 *166:26 *239:12 0
23 *166:26 *239:18 0.00189273
24 *166:26 *298:26 0.000176422
25 *1299:B *378:I 3.71299e-05
26 *1299:B *166:12 2.20548e-05
27 *1301:B1 *378:I 0.000276601
28 *1301:B2 *378:I 3.5555e-05
29 *1501:I *166:26 0.000854484
30 *7:28 *166:26 0
*RES
1 *1346:ZN *166:6 9 
2 *166:6 *166:12 6.42443 
3 *166:12 *166:26 45.8405 
4 *166:26 *1348:B 4.5 
5 *166:12 *379:I 29.7759 
6 *166:6 *378:I 14.548 
*END

*D_NET *167 0.0116234
*CONN
*I *1348:A2 I *D gf180mcu_fd_sc_mcu7t5v0__oai21_1
*I *1347:ZN O *D gf180mcu_fd_sc_mcu7t5v0__aoi211_2
*CAP
1 *1348:A2 0.000410107
2 *1347:ZN 0.000410107
3 *1348:A2 *1260:I 0.000189587
4 *1348:A2 *1262:I 6.46595e-05
5 *1348:A2 *1304:A1 5.74125e-06
6 *1348:A2 *1304:A2 0.00205394
7 *1348:A2 *276:77 4.54969e-05
8 *1348:A2 *285:51 0.00223154
9 *1348:A2 *285:57 0.000580119
10 *1348:A2 *296:61 0.00208749
11 *1310:B *1348:A2 0.00351248
12 *1445:D *1348:A2 3.21631e-05
*RES
1 *1347:ZN *1348:A2 32.82 
*END

*D_NET *168 0.0294628
*CONN
*I *382:I I *D gf180mcu_fd_sc_mcu7t5v0__antenna
*I *381:I I *D gf180mcu_fd_sc_mcu7t5v0__antenna
*I *1351:B I *D gf180mcu_fd_sc_mcu7t5v0__oai21_1
*I *1349:ZN O *D gf180mcu_fd_sc_mcu7t5v0__nand2_1
*CAP
1 *382:I 0.000886548
2 *381:I 7.07373e-05
3 *1351:B 0
4 *1349:ZN 5.03431e-05
5 *168:35 0.0016695
6 *168:28 0.00500699
7 *168:10 0.00576954
8 *381:I *225:14 7.64965e-05
9 *381:I *272:117 6.48311e-06
10 *381:I *310:16 7.98466e-05
11 *382:I *386:I 0.000461434
12 *382:I *415:I 0.000211844
13 *382:I *1274:A1 3.05769e-06
14 *382:I *1352:A1 1.35144e-05
15 *382:I *1355:A2 8.45609e-05
16 *382:I *170:30 0.000462753
17 *382:I *170:55 0.000465772
18 *382:I *272:86 0.000186728
19 *382:I *272:97 0.000592101
20 *382:I *272:109 0.0014684
21 *382:I *272:186 5.56482e-06
22 *382:I *296:116 3.26399e-05
23 *382:I *324:23 0.00158975
24 *382:I *325:8 0.000121082
25 *382:I *325:12 1.9479e-05
26 *168:10 *1349:A1 0.000183364
27 *168:10 *272:125 2.96621e-05
28 *168:10 *310:16 4.44591e-06
29 *168:28 *1246:I 0.00119752
30 *168:28 *1360:A2 0
31 *168:28 *1361:A1 0.0003139
32 *168:28 *1364:A1 0.000254684
33 *168:28 *1448:RN 0.000278838
34 *168:28 *1448:CLK 0.000364619
35 *168:28 *170:30 0.000249173
36 *168:28 *216:21 0.000307515
37 *168:28 *246:39 0.000825867
38 *168:28 *281:35 0.000111861
39 *168:28 *281:43 1.02578e-05
40 *168:35 *415:I 0.0002078
41 dac_p[4] *168:28 2.96977e-05
42 *1301:A2 *168:10 1.49619e-05
43 *1350:B *168:28 0.000373321
44 *1456:D *168:28 0.00114334
45 *1460:D *382:I 0.000771467
46 *1464:D *381:I 0.000247724
47 *1501:I *168:28 0.00193662
48 *94:16 *168:28 0.00109479
49 *123:65 *168:35 0
50 *166:12 *168:28 2.38157e-06
51 *166:12 *168:35 8.20751e-06
52 *166:26 *168:28 0.000165619
*RES
1 *1349:ZN *168:10 14.032 
2 *168:10 *168:28 46.012 
3 *168:28 *1351:B 4.5 
4 *168:10 *168:35 3.268 
5 *168:35 *381:I 14.412 
6 *168:35 *382:I 25.964 
*END

*D_NET *169 0.00826291
*CONN
*I *1351:A2 I *D gf180mcu_fd_sc_mcu7t5v0__oai21_1
*I *1350:ZN O *D gf180mcu_fd_sc_mcu7t5v0__aoi211_1
*CAP
1 *1351:A2 0.00132102
2 *1350:ZN 0.00132102
3 *1351:A2 *1262:I 0
4 *1351:A2 *1291:A1 0.000877171
5 *1351:A2 *1308:A1 0.000226357
6 *1351:A2 *1378:A2 0.000281053
7 *1351:A2 *1593:I 0.000591779
8 *1351:A2 *1594:I 0.00022264
9 *1351:A2 *229:22 0.000585838
10 *1351:A2 *265:42 8.04139e-05
11 *1351:A2 *269:29 0.000193116
12 *1351:A2 *276:91 0.00132257
13 samp_bot *1351:A2 0.000397613
14 samp_top *1351:A2 1.45415e-05
15 *1308:A2 *1351:A2 6.68223e-05
16 *1310:B *1351:A2 7.70345e-05
17 *1350:A2 *1351:A2 0.000403749
18 *1445:D *1351:A2 0.000254235
19 *136:32 *1351:A2 2.59409e-05
*RES
1 *1350:ZN *1351:A2 33.58 
*END

*D_NET *170 0.0334108
*CONN
*I *385:I I *D gf180mcu_fd_sc_mcu7t5v0__antenna
*I *386:I I *D gf180mcu_fd_sc_mcu7t5v0__antenna
*I *1354:B I *D gf180mcu_fd_sc_mcu7t5v0__oai21_1
*I *1352:ZN O *D gf180mcu_fd_sc_mcu7t5v0__nand2_1
*CAP
1 *385:I 0.000132503
2 *386:I 0.000361526
3 *1354:B 0.000681061
4 *1352:ZN 0
5 *170:55 0.000829074
6 *170:30 0.0031399
7 *170:6 0.00279389
8 *385:I *383:I 8.19174e-06
9 *385:I *419:I 0
10 *385:I *172:57 3.26051e-05
11 *385:I *241:119 7.14515e-05
12 *386:I *1355:A1 0.000520211
13 *386:I *1355:A2 7.39173e-05
14 *386:I *172:57 2.19988e-05
15 *386:I *272:186 3.64531e-05
16 *1354:B *1271:A1 0.000467869
17 *1354:B *1398:I1 6.90919e-05
18 *1354:B *1448:CLK 0.000709396
19 *1354:B *209:23 0.000535132
20 *1354:B *209:25 0.000269365
21 *1354:B *241:31 0.000380896
22 *1354:B *241:62 0.000890667
23 *1354:B *265:42 0.00037285
24 *1354:B *289:6 1.75512e-05
25 *1354:B *289:99 1.75557e-05
26 *1354:B *296:46 0.000367321
27 *1354:B *296:69 0.00013063
28 *170:30 *1329:A3 4.44591e-06
29 *170:30 *1341:A2 0.000111324
30 *170:30 *1353:A1 3.83835e-06
31 *170:30 *1353:C 0.000300828
32 *170:30 *1357:A2 8.95188e-05
33 *170:30 *1368:C 2.96621e-05
34 *170:30 *1375:A3 2.2097e-05
35 *170:30 *1432:RN 9.18453e-05
36 *170:30 *1514:I 0.000654369
37 *170:30 *1520:I 1.49066e-06
38 *170:30 *1601:I 8.81341e-06
39 *170:30 *205:25 0.00131934
40 *170:30 *214:26 6.14946e-05
41 *170:30 *214:41 7.76261e-05
42 *170:30 *225:8 4.17148e-05
43 *170:30 *228:10 8.30371e-05
44 *170:30 *228:16 0.000938825
45 *170:30 *228:24 0.000132099
46 *170:30 *229:51 7.91859e-05
47 *170:30 *243:67 0.000294286
48 *170:30 *266:20 0.000177028
49 *170:30 *274:97 0.000820321
50 *170:30 *274:108 0
51 *170:30 *289:14 0.00380954
52 *170:30 *296:116 3.43709e-05
53 *170:30 *312:14 7.57513e-06
54 *170:55 *1434:RN 0.000633297
55 *170:55 *172:22 7.17605e-05
56 *170:55 *172:57 1.20079e-05
57 *170:55 *228:10 6.82719e-05
58 *170:55 *241:119 0.000166124
59 *170:55 *272:86 0.000186291
60 *170:55 *296:116 1.12495e-05
61 *170:55 *324:23 0.000182542
62 *382:I *386:I 0.000461434
63 *382:I *170:30 0.000462753
64 *382:I *170:55 0.000465772
65 *1291:A2 *1354:B 1.28599e-05
66 *1307:A2 *170:30 7.88364e-05
67 *1347:B *170:30 4.44618e-05
68 *1350:B *170:30 1.95512e-05
69 *1359:B *170:30 0.000145652
70 *1371:B *170:30 0.00144388
71 *1446:D *1354:B 0.000174307
72 *1447:D *1354:B 7.4223e-06
73 *1459:D *1354:B 0.000461772
74 *1464:D *170:30 0.000411899
75 *1562:I *170:30 0.00196182
76 *94:16 *170:30 0.00153075
77 *95:8 *170:30 2.77032e-05
78 *101:16 *170:30 0.000118269
79 *140:12 *170:30 0.000307051
80 *153:6 *170:30 0.00156806
81 *168:28 *170:30 0.000249173
*RES
1 *1352:ZN *170:6 9 
2 *170:6 *170:30 48.992 
3 *170:30 *1354:B 23 
4 *170:6 *170:55 8.604 
5 *170:55 *386:I 16.768 
6 *170:55 *385:I 5.412 
*END

*D_NET *171 0.0129789
*CONN
*I *1354:A2 I *D gf180mcu_fd_sc_mcu7t5v0__oai21_1
*I *1353:ZN O *D gf180mcu_fd_sc_mcu7t5v0__aoi221_2
*CAP
1 *1354:A2 0.00317246
2 *1353:ZN 0.00317246
3 *1354:A2 *1353:C 8.18282e-05
4 *1354:A2 *1357:B 5.65034e-05
5 *1354:A2 *229:22 0.000608502
6 *1354:A2 *298:26 0
7 *1347:B *1354:A2 0.000193933
8 *1447:D *1354:A2 0.000104996
9 *7:28 *1354:A2 0
10 *166:26 *1354:A2 0.00558824
*RES
1 *1353:ZN *1354:A2 46.7106 
*END

*D_NET *172 0.0291453
*CONN
*I *390:I I *D gf180mcu_fd_sc_mcu7t5v0__antenna
*I *389:I I *D gf180mcu_fd_sc_mcu7t5v0__antenna
*I *1357:B I *D gf180mcu_fd_sc_mcu7t5v0__oai21_1
*I *1355:ZN O *D gf180mcu_fd_sc_mcu7t5v0__nand2_1
*CAP
1 *390:I 9.10612e-05
2 *389:I 0
3 *1357:B 0.00359419
4 *1355:ZN 0
5 *172:57 0.000379559
6 *172:22 0.00652541
7 *172:4 0.00321971
8 *390:I *419:I 5.01959e-06
9 *1357:B *1271:A2 0
10 *1357:B *1399:B1 9.78861e-05
11 *1357:B *1600:I 0
12 *1357:B *229:22 0.00372942
13 *1357:B *230:41 0.000333954
14 *1357:B *239:41 0
15 *1357:B *276:46 0.000298223
16 *1357:B *298:26 0.00219681
17 *1357:B *308:22 0.000298379
18 *172:22 *406:I 0.000356134
19 *172:22 *419:I 0.000124253
20 *172:22 *444:I 6.77712e-05
21 *172:22 *1319:A1 0
22 *172:22 *1331:A1 2.82519e-05
23 *172:22 *1365:A2 0.000104917
24 *172:22 *1365:B2 0.000149872
25 *172:22 *1525:I 0.000745016
26 *172:22 *207:12 5.13352e-06
27 *172:22 *208:265 0.000971916
28 *172:22 *208:301 0.000521935
29 *172:22 *229:72 4.32237e-05
30 *172:22 *243:67 0.000126468
31 *172:22 *243:79 0.000547581
32 *172:22 *312:14 0.000909824
33 *172:22 *327:53 0.000164962
34 *172:22 *336:16 2.71882e-05
35 *172:57 *419:I 8.36673e-05
36 *172:57 *1355:A1 0.000297639
37 *172:57 *1355:A2 2.74661e-05
38 *172:57 *272:186 2.78073e-05
39 *385:I *172:57 3.26051e-05
40 *386:I *172:57 2.19988e-05
41 *1341:A3 *172:22 0.000432745
42 *1343:A2 *172:22 0
43 *1354:A2 *1357:B 5.65034e-05
44 *1365:B1 *172:22 0.000238864
45 *1428:D *1357:B 5.04847e-05
46 *1430:D *172:22 6.98022e-05
47 *1441:D *172:22 4.38082e-05
48 *1446:D *1357:B 1.15919e-05
49 *96:14 *172:22 0.00170264
50 *108:27 *172:22 0.000299812
51 *108:43 *172:22 0
52 *170:55 *172:22 7.17605e-05
53 *170:55 *172:57 1.20079e-05
*RES
1 *1355:ZN *172:4 4.5 
2 *172:4 *172:22 44.372 
3 *172:22 *1357:B 39.1756 
4 *172:4 *172:57 11.128 
5 *172:57 *389:I 4.5 
6 *172:57 *390:I 5.032 
*END

*D_NET *173 0.0144405
*CONN
*I *1357:A2 I *D gf180mcu_fd_sc_mcu7t5v0__oai21_1
*I *1356:ZN O *D gf180mcu_fd_sc_mcu7t5v0__aoi221_2
*CAP
1 *1357:A2 0.00182694
2 *1356:ZN 0.00182694
3 *1357:A2 *1264:I 0.001317
4 *1357:A2 *1360:A2 0.000124902
5 *1357:A2 *1360:B 0.00218994
6 *1357:A2 *1373:B 1.76471e-05
7 *1357:A2 *1379:A1 0.00069068
8 *1357:A2 *1598:I 0.000580371
9 *1357:A2 *205:25 0.00108008
10 *1357:A2 *243:67 0.000287705
11 *1357:A2 *244:39 0.000339034
12 *1357:A2 *246:14 0.000269342
13 *1357:A2 *272:31 1.12062e-05
14 *1357:A2 *272:46 4.87684e-05
15 *1357:A2 *272:59 0.00166693
16 *1357:A2 *277:12 0.000134113
17 *1357:A2 *281:29 4.10802e-05
18 *1357:A2 *301:10 0.000106145
19 dac_p[3] *1357:A2 9.96921e-05
20 *1291:A2 *1357:A2 9.26705e-05
21 *1373:A2 *1357:A2 0.000960194
22 *1448:D *1357:A2 7.99955e-05
23 *1456:D *1357:A2 0.000123951
24 *109:24 *1357:A2 0.000372799
25 *122:20 *1357:A2 6.28798e-05
26 *170:30 *1357:A2 8.95188e-05
*RES
1 *1356:ZN *1357:A2 41.256 
*END

*D_NET *174 0.00543396
*CONN
*I *1360:B I *D gf180mcu_fd_sc_mcu7t5v0__oai21_1
*I *1358:ZN O *D gf180mcu_fd_sc_mcu7t5v0__nand2_1
*CAP
1 *1360:B 0.000907998
2 *1358:ZN 0.000907998
3 *1360:B *1360:A2 4.86993e-06
4 *1360:B *1372:B 8.65365e-05
5 *1360:B *1374:B1 0.000786891
6 *1360:B *1449:CLK 7.886e-05
7 *1360:B *1579:I 2.27233e-05
8 *1360:B *246:14 2.52466e-05
9 *1360:B *273:61 7.38988e-05
10 *1360:B *301:10 9.04857e-05
11 dac_p[4] *1360:B 7.886e-05
12 *1357:A2 *1360:B 0.00218994
13 *86:20 *1360:B 0.000179658
*RES
1 *1358:ZN *1360:B 26.436 
*END

*D_NET *175 0.0114142
*CONN
*I *1360:A2 I *D gf180mcu_fd_sc_mcu7t5v0__oai21_1
*I *1359:ZN O *D gf180mcu_fd_sc_mcu7t5v0__aoi211_2
*CAP
1 *1360:A2 0.00292435
2 *1359:ZN 0.00292435
3 *1360:A2 *1246:I 3.2184e-05
4 *1360:A2 *1302:A1 0.000387757
5 *1360:A2 *1317:A1 0.000242677
6 *1360:A2 *1322:A2 0.000159446
7 *1360:A2 *1356:C 0
8 *1360:A2 *1372:B 6.31119e-05
9 *1360:A2 *1374:B1 7.2964e-06
10 *1360:A2 *1487:I 1.90748e-05
11 *1360:A2 *1520:I 4.93422e-05
12 *1360:A2 *1549:I 0.000181264
13 *1360:A2 *1598:I 3.59023e-05
14 *1360:A2 *204:8 0.000148247
15 *1360:A2 *216:21 9.98266e-05
16 *1360:A2 *244:39 7.26539e-05
17 *1360:A2 *277:12 0.000496509
18 *1360:A2 *281:29 0.000417581
19 *1360:A2 *289:99 9.52676e-05
20 *1360:A2 *301:10 1.02876e-05
21 *1360:A2 *333:22 1.46914e-05
22 dac_p[3] *1360:A2 0.000479508
23 dac_p[4] *1360:A2 3.81953e-05
24 *1291:A2 *1360:A2 6.66983e-05
25 *1307:A2 *1360:A2 2.97354e-06
26 *1317:A2 *1360:A2 0.000137776
27 *1353:B1 *1360:A2 0.000187195
28 *1356:A2 *1360:A2 0
29 *1357:A2 *1360:A2 0.000124902
30 *1359:A1 *1360:A2 0.000112573
31 *1360:B *1360:A2 4.86993e-06
32 *1449:D *1360:A2 0.000127582
33 *1501:I *1360:A2 0.00122618
34 *86:20 *1360:A2 0.000203929
35 *109:24 *1360:A2 5.25883e-05
36 *132:12 *1360:A2 0.000169195
37 *140:12 *1360:A2 7.15897e-05
38 *143:14 *1360:A2 2.65844e-05
39 *168:28 *1360:A2 0
*RES
1 *1359:ZN *1360:A2 41.864 
*END

*D_NET *176 0.00707831
*CONN
*I *1363:B I *D gf180mcu_fd_sc_mcu7t5v0__oai21_1
*I *1361:ZN O *D gf180mcu_fd_sc_mcu7t5v0__nand2_1
*CAP
1 *1363:B 0.00153658
2 *1361:ZN 0.00153658
3 *1363:B *400:I 0.000483935
4 *1363:B *1249:I 0.000148337
5 *1363:B *1270:A1 0.000191505
6 *1363:B *1270:A2 0.000137785
7 *1363:B *1361:A2 8.42232e-05
8 *1363:B *1366:A2 0
9 *1363:B *1448:RN 0.000435019
10 *1363:B *1454:CLK 6.84574e-06
11 *1363:B *1479:I 0.000137186
12 *1363:B *1493:I 0.000415253
13 *1363:B *1548:I 0.000211937
14 *1363:B *206:22 0.000128955
15 *1363:B *209:6 0.000455099
16 *1363:B *233:22 8.75225e-05
17 *1363:B *280:31 4.37699e-05
18 *1363:B *289:99 0.000640846
19 *1363:B *299:8 0.000139427
20 *1363:B *299:17 2.65884e-05
21 *399:I *1363:B 9.88736e-06
22 *1291:A2 *1363:B 6.58724e-06
23 *1503:I *1363:B 0
24 *1510:I *1363:B 0.00021443
*RES
1 *1361:ZN *1363:B 41.136 
*END

*D_NET *177 0.0108003
*CONN
*I *1363:A2 I *D gf180mcu_fd_sc_mcu7t5v0__oai21_1
*I *1362:ZN O *D gf180mcu_fd_sc_mcu7t5v0__aoi211_2
*CAP
1 *1363:A2 0
2 *1362:ZN 0.00367942
3 *177:24 0.00367942
4 *177:24 *438:I 1.94705e-05
5 *177:24 *1341:A4 0.000133341
6 *177:24 *1362:B 0.00010315
7 *177:24 *1366:A2 0.000223351
8 *177:24 *1518:I 1.96063e-06
9 *177:24 *206:14 4.37185e-05
10 *177:24 *266:20 0.000933491
11 *177:24 *290:34 6.50255e-06
12 *177:24 *290:40 1.85935e-05
13 *177:24 *308:22 0.00154346
14 *86:20 *177:24 0.000321007
15 *166:26 *177:24 9.33972e-05
*RES
1 *1362:ZN *177:24 46.1267 
2 *177:24 *1363:A2 4.5 
*END

*D_NET *178 0.00765022
*CONN
*I *1366:B I *D gf180mcu_fd_sc_mcu7t5v0__oai21_1
*I *1364:ZN O *D gf180mcu_fd_sc_mcu7t5v0__nand2_1
*CAP
1 *1366:B 0.00049842
2 *1364:ZN 0.00049842
3 *1366:B *1246:I 0.000372137
4 *1366:B *1364:A1 0.000571762
5 *1366:B *1364:A2 7.49908e-05
6 *1366:B *1578:I 0.000601458
7 *1366:B *1579:I 4.72409e-05
8 *1366:B *246:39 0.000135772
9 dac_p[6] *1366:B 0.00024749
10 dac_p[7] *1366:B 0.00224111
11 dac_p[8] *1366:B 0.00234165
12 *94:16 *1366:B 1.97747e-05
*RES
1 *1364:ZN *1366:B 20.172 
*END

*D_NET *179 0.00997125
*CONN
*I *1366:A2 I *D gf180mcu_fd_sc_mcu7t5v0__oai21_1
*I *1365:ZN O *D gf180mcu_fd_sc_mcu7t5v0__aoi221_2
*CAP
1 *1366:A2 0.00248335
2 *1365:ZN 0.00248335
3 *1366:A2 *349:I 5.53227e-05
4 *1366:A2 *438:I 0.000145096
5 *1366:A2 *1363:A1 0.000177978
6 *1366:A2 *1366:A1 2.5671e-05
7 *1366:A2 *1372:B 1.97747e-05
8 *1366:A2 *1404:A2 1.4685e-05
9 *1366:A2 *1430:SETN 0.000252746
10 *1366:A2 *1454:CLK 0.000289629
11 *1366:A2 *1564:I 0.000157004
12 *1366:A2 *206:14 0.000116395
13 *1366:A2 *206:43 7.88457e-05
14 *1366:A2 *218:8 0.000480265
15 *1366:A2 *218:41 0.000351361
16 *1366:A2 *229:51 2.96621e-05
17 *1366:A2 *229:72 0.000161681
18 *1366:A2 *280:31 9.54345e-05
19 *1366:A2 *296:36 8.18346e-06
20 *1366:A2 *302:10 0.000410189
21 *1366:A2 *302:18 0.000112697
22 *1363:B *1366:A2 0
23 *1397:A1 *1366:A2 3.12484e-06
24 *1429:D *1366:A2 0.000335029
25 *1510:I *1366:A2 0.00025885
26 *97:14 *1366:A2 3.10265e-05
27 *108:14 *1366:A2 0.000456711
28 *108:43 *1366:A2 0.000117271
29 *122:20 *1366:A2 0.000184076
30 *153:6 *1366:A2 0.000412486
31 *177:24 *1366:A2 0.000223351
*RES
1 *1365:ZN *1366:A2 36.772 
*END

*D_NET *180 0.00227879
*CONN
*I *1369:B I *D gf180mcu_fd_sc_mcu7t5v0__oai21_1
*I *1367:ZN O *D gf180mcu_fd_sc_mcu7t5v0__nand2_1
*CAP
1 *1369:B 0.000511201
2 *1367:ZN 0.000511201
3 *1369:B *1367:A2 4.29636e-06
4 *1369:B *1548:I 0.000820576
5 *1369:B *1571:I 2.53329e-06
6 *1369:B *248:65 0
7 *1369:B *296:36 0.000108807
8 *1369:B *342:30 0.000311006
9 *122:20 *1369:B 9.17202e-06
*RES
1 *1367:ZN *1369:B 22.56 
*END

*D_NET *181 0.0103261
*CONN
*I *1369:A2 I *D gf180mcu_fd_sc_mcu7t5v0__oai21_1
*I *1368:ZN O *D gf180mcu_fd_sc_mcu7t5v0__aoi211_2
*CAP
1 *1369:A2 0.00267106
2 *1368:ZN 0.00267106
3 *1369:A2 *1259:I 0.000139342
4 *1369:A2 *1290:A1 0.000148104
5 *1369:A2 *1290:A2 0.000128106
6 *1369:A2 *1377:A3 0.000779985
7 *1369:A2 *1407:B2 8.66181e-05
8 *1369:A2 *1462:RN 0
9 *1369:A2 *1499:I 2.99319e-05
10 *1369:A2 *1514:I 0.000343606
11 *1369:A2 *1522:I 2.97689e-05
12 *1369:A2 *1548:I 0
13 *1369:A2 *208:385 9.86353e-05
14 *1369:A2 *224:12 0.000101154
15 *1369:A2 *248:65 0.000123855
16 *1369:A2 *266:20 0.000246194
17 *1369:A2 *274:97 3.02222e-05
18 *1369:A2 *327:20 1.87701e-05
19 *1338:A2 *1369:A2 0.000411248
20 *1342:A2 *1369:A2 0.000418394
21 *1368:A1 *1369:A2 1.91917e-06
22 *1371:B *1369:A2 1.65939e-05
23 *1374:B2 *1369:A2 0.000153699
24 *1383:A1 *1369:A2 0.000313815
25 *1407:A1 *1369:A2 0.00123901
26 *1455:D *1369:A2 0.000124968
*RES
1 *1368:ZN *1369:A2 38.064 
*END

*D_NET *182 0.00828529
*CONN
*I *1372:B I *D gf180mcu_fd_sc_mcu7t5v0__oai21_1
*I *1370:ZN O *D gf180mcu_fd_sc_mcu7t5v0__nand2_1
*CAP
1 *1372:B 0.00134922
2 *1370:ZN 0.00134922
3 *1372:B *349:I 0.000477985
4 *1372:B *363:I 0.000183975
5 *1372:B *447:I 0.000353088
6 *1372:B *1287:A1 0.000171072
7 *1372:B *1364:A2 0.000154451
8 *1372:B *1370:A1 4.04235e-05
9 *1372:B *1379:A1 0.00136208
10 *1372:B *1564:I 0.0010009
11 *1372:B *1579:I 7.4008e-05
12 *1372:B *206:43 0.000179853
13 *1372:B *248:48 2.29479e-05
14 *1372:B *273:61 3.4671e-05
15 *1372:B *281:29 0.000586286
16 dac_p[3] *1372:B 0.000116946
17 dac_p[6] *1372:B 0.000147305
18 *1336:A1 *1372:B 0.000154451
19 *1360:A2 *1372:B 6.31119e-05
20 *1360:B *1372:B 8.65365e-05
21 *1366:A2 *1372:B 1.97747e-05
22 *1373:A2 *1372:B 3.00299e-05
23 *122:20 *1372:B 0.000326964
*RES
1 *1370:ZN *1372:B 33.428 
*END

*D_NET *183 0.00855129
*CONN
*I *1372:A2 I *D gf180mcu_fd_sc_mcu7t5v0__oai21_1
*I *1371:ZN O *D gf180mcu_fd_sc_mcu7t5v0__aoi211_2
*CAP
1 *1372:A2 0.00194789
2 *1371:ZN 0.00194789
3 *1372:A2 *348:I 0.00015869
4 *1372:A2 *430:I 0.000132933
5 *1372:A2 *1290:A2 6.69987e-05
6 *1372:A2 *1331:A1 0.000371749
7 *1372:A2 *1345:A2 8.5254e-05
8 *1372:A2 *1548:I 0.000161689
9 *1372:A2 *1551:I 0.000267578
10 *1372:A2 *231:50 0.000409302
11 *1372:A2 *274:47 0.000202147
12 *1372:A2 *274:81 0.000435452
13 *1372:A2 *280:72 0.000346094
14 *1372:A2 *304:12 0.00102858
15 *1372:A2 *342:30 0.000104569
16 *1292:B1 *1372:A2 4.4947e-05
17 *1407:A1 *1372:A2 0
18 *1469:I *1372:A2 0.000103699
19 *1501:I *1372:A2 0.000116986
20 *1502:I *1372:A2 6.40555e-06
21 *1562:I *1372:A2 0.000185138
22 *110:37 *1372:A2 0.000146028
23 *159:41 *1372:A2 9.61267e-05
24 *159:43 *1372:A2 0.000185138
*RES
1 *1371:ZN *1372:A2 34.872 
*END

*D_NET *184 0.00733678
*CONN
*I *1374:B1 I *D gf180mcu_fd_sc_mcu7t5v0__aoi22_1
*I *1373:ZN O *D gf180mcu_fd_sc_mcu7t5v0__aoi21_1
*CAP
1 *1374:B1 0.00272653
2 *1373:ZN 0.00272653
3 *1374:B1 *1361:A2 7.3227e-05
4 *1374:B1 *1549:I 2.49387e-05
5 *1374:B1 *233:22 0
6 *1374:B1 *244:39 9.62437e-05
7 *1374:B1 *273:10 0.000700263
8 *1374:B1 *289:134 3.46802e-05
9 *1374:B1 *298:14 0
10 *1374:B1 *301:10 6.04407e-05
11 *1360:A2 *1374:B1 7.2964e-06
12 *1360:B *1374:B1 0.000786891
13 *86:20 *1374:B1 8.37705e-05
14 *120:71 *1374:B1 1.59682e-05
*RES
1 *1373:ZN *1374:B1 40.224 
*END

*D_NET *185 0.00614281
*CONN
*I *1377:A2 I *D gf180mcu_fd_sc_mcu7t5v0__nor3_1
*I *1375:ZN O *D gf180mcu_fd_sc_mcu7t5v0__nor3_1
*CAP
1 *1377:A2 0.000940744
2 *1375:ZN 0.000940744
3 *1377:A2 *1288:B 0.000826105
4 *1377:A2 *1293:A1 0.00011482
5 *1377:A2 *1296:A1 0.000523313
6 *1377:A2 *1375:A1 3.9293e-05
7 *1377:A2 *1460:CLK 8.52954e-05
8 *1377:A2 *1542:I 3.78032e-05
9 *1377:A2 *1601:I 0.000699174
10 *1377:A2 *208:397 0.000485215
11 *1377:A2 *248:65 0.000354601
12 *1377:A2 *345:25 0.000412711
13 *1377:A1 *1377:A2 8.18373e-05
14 *4:30 *1377:A2 0.000601157
*RES
1 *1375:ZN *1377:A2 29.248 
*END

*D_NET *186 0.00297159
*CONN
*I *1377:A3 I *D gf180mcu_fd_sc_mcu7t5v0__nor3_1
*I *1376:ZN O *D gf180mcu_fd_sc_mcu7t5v0__aoi21_1
*CAP
1 *1377:A3 0.000548577
2 *1376:ZN 0.000548577
3 *1377:A3 *1290:A2 0.000314666
4 *1377:A3 *208:385 7.013e-06
5 *1377:A3 *224:19 8.39112e-05
6 *1377:A3 *279:10 0.000350435
7 *1369:A2 *1377:A3 0.000779985
8 *1376:A1 *1377:A3 4.16201e-05
9 *1383:A3 *1377:A3 4.28025e-05
10 *1407:A1 *1377:A3 0.000244497
11 *1455:D *1377:A3 9.50578e-06
*RES
1 *1376:ZN *1377:A3 23.472 
*END

*D_NET *187 0.0132575
*CONN
*I *1379:A3 I *D gf180mcu_fd_sc_mcu7t5v0__nor3_1
*I *1378:ZN O *D gf180mcu_fd_sc_mcu7t5v0__nor2_1
*CAP
1 *1379:A3 0
2 *1378:ZN 0.00602946
3 *187:24 0.00602946
4 *187:24 *353:I 0
5 *187:24 *1271:A2 4.68915e-05
6 *187:24 *289:14 0.000141629
7 *134:26 *187:24 0.00101001
*RES
1 *1378:ZN *187:24 48.1209 
2 *187:24 *1379:A3 4.5 
*END

*D_NET *188 0.00467484
*CONN
*I *1382:A1 I *D gf180mcu_fd_sc_mcu7t5v0__nor2_1
*I *1380:ZN O *D gf180mcu_fd_sc_mcu7t5v0__nor2_1
*CAP
1 *1382:A1 0.000688041
2 *1380:ZN 0.000688041
3 *1382:A1 *1281:A1 1.20137e-05
4 *1382:A1 *1281:A3 0.000137785
5 *1382:A1 *1383:A2 0
6 *1382:A1 *1465:RN 3.67359e-05
7 *1382:A1 *1542:I 4.14296e-05
8 *1382:A1 *1553:I 0
9 *1382:A1 *288:32 0.000343671
10 *1382:A1 *307:18 7.71175e-06
11 *1380:A1 *1382:A1 8.0017e-05
12 *1462:D *1382:A1 0.00108098
13 *100:31 *1382:A1 0.000289651
14 *100:54 *1382:A1 0.000179657
15 *111:28 *1382:A1 0.00106585
16 *116:20 *1382:A1 2.32629e-05
*RES
1 *1380:ZN *1382:A1 16.676 
*END

*D_NET *189 0.00618703
*CONN
*I *1382:A2 I *D gf180mcu_fd_sc_mcu7t5v0__nor2_1
*I *1381:ZN O *D gf180mcu_fd_sc_mcu7t5v0__nor3_1
*CAP
1 *1382:A2 0.000440266
2 *1381:ZN 0.000440266
3 *1382:A2 *1460:RN 0.000641405
4 *1382:A2 *1569:I 0.00195318
5 *1382:A2 *307:18 0
6 cmp_rst *1382:A2 8.59272e-06
7 dac_n[7] *1382:A2 0
8 dac_n[8] *1382:A2 0.000171142
9 *1457:D *1382:A2 0.00193831
10 *1458:D *1382:A2 3.1702e-06
11 *100:16 *1382:A2 0.000590696
*RES
1 *1381:ZN *1382:A2 27.348 
*END

*D_NET *190 0.00138947
*CONN
*I *1384:B I *D gf180mcu_fd_sc_mcu7t5v0__oai21_1
*I *1383:ZN O *D gf180mcu_fd_sc_mcu7t5v0__nand3_1
*CAP
1 *1384:B 0.000330983
2 *1383:ZN 0.000330983
3 *1384:B *296:36 0
4 *1384:B *296:116 0.000158267
5 *1384:B *305:8 0.000185439
6 *1289:A2 *1384:B 2.79958e-05
7 *1383:A1 *1384:B 7.29442e-05
8 *1384:A1 *1384:B 0.000282861
*RES
1 *1383:ZN *1384:B 20.812 
*END

*D_NET *191 0.0332039
*CONN
*I *397:I I *D gf180mcu_fd_sc_mcu7t5v0__antenna
*I *398:I I *D gf180mcu_fd_sc_mcu7t5v0__antenna
*I *1396:A2 I *D gf180mcu_fd_sc_mcu7t5v0__nor2_1
*I *1395:ZN O *D gf180mcu_fd_sc_mcu7t5v0__nor2_1
*CAP
1 *397:I 0.000485674
2 *398:I 0.00071845
3 *1396:A2 0.000704197
4 *1395:ZN 0.00142557
5 *191:34 0.00760043
6 *191:20 0.00808903
7 *397:I *441:I 0.000261449
8 *397:I *1390:I0 0.000649619
9 *397:I *256:10 0.000695993
10 *398:I *414:I 0.000245882
11 *398:I *1252:I 3.33385e-05
12 *1396:A2 *235:22 2.22657e-05
13 *1396:A2 *298:76 6.98149e-05
14 *1396:A2 *341:14 0.000469112
15 *191:20 *355:I 0
16 *191:20 *1314:A1 0.000887393
17 *191:20 *1324:A1 1.1715e-05
18 *191:20 *1385:I1 0.00047149
19 *191:20 *1386:I0 5.54728e-05
20 *191:20 *1387:I1 0.000146984
21 *191:20 *1418:CLK 9.76829e-05
22 *191:20 *1420:CLK 0.000788891
23 *191:20 *1438:RN 0.000581637
24 *191:20 *1440:RN 3.87828e-05
25 *191:20 *1496:I 0.000983079
26 *191:20 *1591:I 0
27 *191:20 *222:18 0.000477255
28 *191:20 *222:33 0.00085729
29 *191:20 *241:62 3.83835e-06
30 *191:20 *241:88 0.000177797
31 *191:20 *269:65 2.17514e-05
32 *191:20 *314:16 1.3639e-05
33 *191:20 *317:24 0.000327577
34 *191:20 *322:16 0.000366483
35 *191:20 *333:14 5.28599e-06
36 *191:34 *414:I 0.000191273
37 *191:34 *441:I 1.9953e-05
38 *191:34 *1391:I0 5.17014e-05
39 *191:34 *1393:I1 0.0018343
40 *191:34 *225:26 0.000556622
41 *191:34 *241:111 0.000567652
42 *191:34 *298:86 0
43 *191:34 *338:12 0.000292326
44 dac_n[6] *1396:A2 3.07734e-05
45 *1324:B *191:20 0.000221927
46 *1381:A3 *1396:A2 8.23555e-05
47 *1418:D *191:20 0.00032464
48 *1419:D *191:20 0
49 *1421:D *397:I 0.000225751
50 *1421:D *191:20 6.48034e-06
51 *1421:D *191:34 0.000129992
52 *1441:D *191:20 1.3758e-05
53 *1458:D *1396:A2 2.16288e-06
54 *1464:D *1396:A2 5.54258e-05
55 *4:30 *398:I 1.17331e-05
56 *86:20 *1396:A2 5.69191e-05
57 *100:16 *1396:A2 0.000507951
58 *126:28 *1396:A2 0.000235313
*RES
1 *1395:ZN *191:20 26.1 
2 *191:20 *191:34 33.0403 
3 *191:34 *1396:A2 20.245 
4 *191:34 *398:I 17.813 
5 *191:20 *397:I 13.788 
*END

*D_NET *192 0.00866442
*CONN
*I *1400:B1 I *D gf180mcu_fd_sc_mcu7t5v0__oai32_4
*I *1398:I1 I *D gf180mcu_fd_sc_mcu7t5v0__mux2_2
*I *1397:ZN O *D gf180mcu_fd_sc_mcu7t5v0__nor2_2
*CAP
1 *1400:B1 0
2 *1398:I1 0.00162424
3 *1397:ZN 0.000454949
4 *192:8 0.00207919
5 *1398:I1 *1264:I 1.3758e-05
6 *1398:I1 *1467:D 2.293e-05
7 *1398:I1 *1467:CLK 0.0010373
8 *1398:I1 *1470:I 5.63029e-05
9 *1398:I1 *243:21 0.000240723
10 *1398:I1 *244:39 5.87561e-06
11 *1398:I1 *289:99 0
12 *1398:I1 *308:22 0.000245453
13 *1398:I1 *340:18 0.000181473
14 *1398:I1 *340:37 0.00134408
15 *192:8 *1428:CLK 0.000222306
16 *192:8 *206:14 2.01074e-05
17 *192:8 *218:41 1.97747e-05
18 *192:8 *290:129 0.00013063
19 *192:8 *290:151 7.3227e-05
20 *192:8 *340:37 0.000201027
21 dac_p[1] *1398:I1 8.55327e-05
22 *1311:A2 *1398:I1 2.6126e-05
23 *1311:A2 *192:8 5.22519e-05
24 *1354:B *1398:I1 6.90919e-05
25 *1398:S *1398:I1 9.4403e-05
26 *1402:A2 *192:8 5.25367e-05
27 *1427:D *1398:I1 0.000114072
28 *1447:D *1398:I1 0.000144162
29 *109:24 *1398:I1 3.68751e-05
30 *110:14 *192:8 1.60091e-05
*RES
1 *1397:ZN *192:8 7.844 
2 *192:8 *1398:I1 26.724 
3 *192:8 *1400:B1 4.5 
*END

*D_NET *193 0.000671621
*CONN
*I *1400:A3 I *D gf180mcu_fd_sc_mcu7t5v0__oai32_4
*I *1399:ZN O *D gf180mcu_fd_sc_mcu7t5v0__oai22_4
*CAP
1 *1400:A3 0.00020287
2 *1399:ZN 0.00020287
3 *1400:A3 *208:85 3.26577e-05
4 *1400:A3 *291:79 9.54385e-05
5 *1400:A3 *312:29 0
6 *1399:A1 *1400:A3 0.000137785
*RES
1 *1399:ZN *1400:A3 10.444 
*END

*D_NET *194 0.00153507
*CONN
*I *1402:A3 I *D gf180mcu_fd_sc_mcu7t5v0__nor3_1
*I *1401:ZN O *D gf180mcu_fd_sc_mcu7t5v0__aoi211_1
*CAP
1 *1402:A3 0.000367358
2 *1401:ZN 0.000367358
3 *1402:A3 *1407:B2 4.01733e-06
4 *1402:A3 *282:29 7.64131e-05
5 *1402:A3 *293:54 0.000157424
6 *1400:A1 *1402:A3 0
7 *108:14 *1402:A3 0.000304616
8 *108:27 *1402:A3 0.000257887
*RES
1 *1401:ZN *1402:A3 11.964 
*END

*D_NET *195 0.00519333
*CONN
*I *1404:A2 I *D gf180mcu_fd_sc_mcu7t5v0__oai21_1
*I *1402:ZN O *D gf180mcu_fd_sc_mcu7t5v0__nor3_1
*CAP
1 *1404:A2 0.000353155
2 *1402:ZN 0.000353155
3 *1404:A2 *1548:I 0.000366304
4 *1404:A2 *302:18 0.000297593
5 *1366:A2 *1404:A2 1.4685e-05
6 *1397:A1 *1404:A2 0.000612329
7 *1401:A2 *1404:A2 0.000625019
8 *1402:A1 *1404:A2 0.000625019
9 *1429:D *1404:A2 0.00183968
10 *97:14 *1404:A2 0.000106385
*RES
1 *1402:ZN *1404:A2 25.296 
*END

*D_NET *196 0.00492998
*CONN
*I *1406:A1 I *D gf180mcu_fd_sc_mcu7t5v0__and2_1
*I *1404:B I *D gf180mcu_fd_sc_mcu7t5v0__oai21_1
*I *1403:ZN O *D gf180mcu_fd_sc_mcu7t5v0__oai211_1
*CAP
1 *1406:A1 9.23484e-05
2 *1404:B 0.000220631
3 *1403:ZN 0.000382543
4 *196:10 0.000695523
5 *1406:A1 *289:99 0.000239048
6 *196:10 *1405:A1 2.94419e-05
7 *196:10 *1407:B2 7.83779e-05
8 *196:10 *1430:CLK 5.75752e-06
9 *1336:A1 *1404:B 0.000137853
10 *1336:A1 *196:10 0.000185115
11 *1503:I *1404:B 0
12 *1510:I *1404:B 0.00013063
13 *96:14 *196:10 0.000273482
14 *97:8 *1404:B 4.23892e-05
15 *104:12 *1404:B 0.000246194
16 *110:14 *1406:A1 0
17 *118:14 *196:10 0.000893736
18 *120:71 *1404:B 0.000533869
19 *120:71 *196:10 0.000743041
*RES
1 *1403:ZN *196:10 13.864 
2 *196:10 *1404:B 11.432 
3 *196:10 *1406:A1 9.684 
*END

*D_NET *197 0.00111442
*CONN
*I *1406:A2 I *D gf180mcu_fd_sc_mcu7t5v0__and2_1
*I *1405:ZN O *D gf180mcu_fd_sc_mcu7t5v0__oai21_1
*CAP
1 *1406:A2 6.48806e-05
2 *1405:ZN 6.48806e-05
3 *1406:A2 *400:I 0.000456316
4 *1430:D *1406:A2 2.08264e-05
5 *1511:I *1406:A2 0.000507517
*RES
1 *1405:ZN *1406:A2 19.444 
*END

*D_NET *198 0.00762997
*CONN
*I *1413:B1 I *D gf180mcu_fd_sc_mcu7t5v0__oai22_1
*I *1409:B1 I *D gf180mcu_fd_sc_mcu7t5v0__oai22_1
*I *1407:ZN O *D gf180mcu_fd_sc_mcu7t5v0__oai221_4
*CAP
1 *1413:B1 0
2 *1409:B1 0.000192942
3 *1407:ZN 0.000879205
4 *198:26 0.00107215
5 *1409:B1 *1409:B2 0.000393676
6 *1409:B1 *1412:B1 4.80502e-05
7 *1409:B1 *1413:B2 2.6126e-05
8 *198:26 *1300:B 0.00103254
9 *198:26 *1409:B2 0.000243167
10 *198:26 *1412:B1 1.31916e-06
11 *198:26 *1413:B2 0.000415389
12 *198:26 *1462:RN 0.000203242
13 *198:26 *1466:CLK 0.000526536
14 *198:26 *225:14 2.61012e-05
15 *198:26 *343:12 3.83835e-06
16 *1275:A1 *1409:B1 0.000179161
17 *1407:C *198:26 0.000196037
18 *1412:A2 *1409:B1 0.000181539
19 *1414:A2 *198:26 0.000268519
20 *1464:D *198:26 0.000120322
21 *123:52 *198:26 2.87786e-05
22 *127:12 *198:26 0.00159133
*RES
1 *1407:ZN *198:26 24.064 
2 *198:26 *1409:B1 15.552 
3 *198:26 *1413:B1 4.5 
*END

*D_NET *199 0.00189129
*CONN
*I *1409:B2 I *D gf180mcu_fd_sc_mcu7t5v0__oai22_1
*I *1408:ZN O *D gf180mcu_fd_sc_mcu7t5v0__oai31_1
*CAP
1 *1409:B2 0.000275028
2 *1408:ZN 0.000275028
3 *1409:B2 *1375:A3 2.08264e-05
4 *1409:B2 *296:116 7.32735e-05
5 *1408:B *1409:B2 0.000232733
6 *1409:B1 *1409:B2 0.000393676
7 *1413:A2 *1409:B2 1.47758e-05
8 *1414:A2 *1409:B2 0.000362787
9 *198:26 *1409:B2 0.000243167
*RES
1 *1408:ZN *1409:B2 21.04 
*END

*D_NET *200 0.00379059
*CONN
*I *1412:B1 I *D gf180mcu_fd_sc_mcu7t5v0__aoi22_1
*I *1410:ZN O *D gf180mcu_fd_sc_mcu7t5v0__nand4_1
*CAP
1 *1412:B1 0.000701235
2 *1410:ZN 0.000701235
3 *1412:B1 *1375:A2 3.50073e-05
4 *1412:B1 *1408:A1 0.000157023
5 *1412:B1 *1412:B2 6.05942e-05
6 *1412:B1 *1413:B2 4.12469e-05
7 *1412:B1 *1488:I 0.00127618
8 *1412:B1 *1529:I 0.000437219
9 *1412:B1 *344:56 0.000309574
10 *1296:A2 *1412:B1 9.88736e-06
11 *1297:A1 *1412:B1 0
12 *1409:B1 *1412:B1 4.80502e-05
13 *1466:D *1412:B1 1.2018e-05
14 *198:26 *1412:B1 1.31916e-06
*RES
1 *1410:ZN *1412:B1 15.764 
*END

*D_NET *201 0.00203863
*CONN
*I *1412:B2 I *D gf180mcu_fd_sc_mcu7t5v0__aoi22_1
*I *1411:Z O *D gf180mcu_fd_sc_mcu7t5v0__xor2_1
*CAP
1 *1412:B2 0.000425365
2 *1411:Z 0.000425365
3 *1412:B2 *380:I 3.85646e-05
4 *1412:B2 *1413:B2 0.000439705
5 *1412:B2 *344:27 2.88179e-05
6 *1412:B2 *344:31 2.57255e-05
7 *1412:B2 *344:56 1.19438e-05
8 *1300:A2 *1412:B2 0.000370854
9 *1412:A2 *1412:B2 0.000132933
10 *1412:B1 *1412:B2 6.05942e-05
11 *124:16 *1412:B2 7.8766e-05
*RES
1 *1411:Z *1412:B2 21.724 
*END

*D_NET *202 0.00280678
*CONN
*I *1413:B2 I *D gf180mcu_fd_sc_mcu7t5v0__oai22_1
*I *1412:ZN O *D gf180mcu_fd_sc_mcu7t5v0__aoi22_1
*CAP
1 *1413:B2 0.000792957
2 *1412:ZN 0.000792957
3 *1413:B2 *415:I 4.0515e-05
4 *1413:B2 *1408:A1 1.76322e-05
5 *1413:B2 *1412:A1 3.22267e-05
6 *1413:B2 *208:457 2.79958e-05
7 *1413:B2 *344:56 1.51257e-05
8 *1278:A2 *1413:B2 4.65744e-05
9 *1296:A2 *1413:B2 7.38909e-06
10 *1300:A1 *1413:B2 1.32647e-05
11 *1300:A2 *1413:B2 6.31678e-05
12 *1409:B1 *1413:B2 2.6126e-05
13 *1412:B1 *1413:B2 4.12469e-05
14 *1412:B2 *1413:B2 0.000439705
15 *127:12 *1413:B2 3.45116e-05
16 *198:26 *1413:B2 0.000415389
*RES
1 *1412:ZN *1413:B2 15.232 
*END

*D_NET *203 0.00393277
*CONN
*I *1415:A2 I *D gf180mcu_fd_sc_mcu7t5v0__aoi21_1
*I *1414:Z O *D gf180mcu_fd_sc_mcu7t5v0__or4_1
*CAP
1 *1415:A2 0.000767063
2 *1414:Z 0.000767063
3 *1415:A2 *1346:A1 0.000127598
4 *1415:A2 *1346:A2 0.000183879
5 *1415:A2 *1349:A2 1.53123e-05
6 *1415:A2 *1375:A3 1.64443e-05
7 *1415:A2 *1431:CLK 7.59985e-05
8 *1415:A2 *1466:CLK 9.09812e-05
9 *1415:A2 *211:52 4.15892e-05
10 *1415:A2 *310:16 0.000193715
11 *1415:A2 *344:27 4.17713e-05
12 *378:I *1415:A2 8.93173e-05
13 *1299:B *1415:A2 5.55462e-06
14 *1415:B *1415:A2 1.76797e-05
15 *1432:D *1415:A2 0.000255228
16 *1433:D *1415:A2 0.00034753
17 *1466:D *1415:A2 0.000243569
18 *101:16 *1415:A2 7.22127e-06
19 *123:65 *1415:A2 2.74753e-05
20 *131:12 *1415:A2 0.000572672
21 *166:12 *1415:A2 4.5102e-05
*RES
1 *1414:Z *1415:A2 24.688 
*END

*D_NET *204 0.00601189
*CONN
*I *1520:I I *D gf180mcu_fd_sc_mcu7t5v0__dlyb_1
*I *1329:A1 I *D gf180mcu_fd_sc_mcu7t5v0__nor4_4
*I *1427:Q O *D gf180mcu_fd_sc_mcu7t5v0__dffsnq_1
*CAP
1 *1520:I 0.000147104
2 *1329:A1 0.000596619
3 *1427:Q 0.000330487
4 *204:8 0.00107421
5 *1329:A1 *1480:I 8.27435e-05
6 *1329:A1 *208:123 0
7 *1329:A1 *229:51 0.00117778
8 *1520:I *1353:A1 0.000848028
9 *1520:I *229:51 0.000909817
10 *1321:A2 *1329:A1 5.83188e-05
11 *1350:B *1520:I 4.2733e-05
12 *1350:B *204:8 0.0003799
13 *1360:A2 *1520:I 4.93422e-05
14 *1360:A2 *204:8 0.000148247
15 *97:60 *1329:A1 2.22758e-05
16 *140:12 *1520:I 0.000142801
17 *170:30 *1520:I 1.49066e-06
*RES
1 *1427:Q *204:8 11.508 
2 *204:8 *1329:A1 13.94 
3 *204:8 *1520:I 12.192 
*END

*D_NET *205 0.00832964
*CONN
*I *1341:A2 I *D gf180mcu_fd_sc_mcu7t5v0__nor4_4
*I *1325:A2 I *D gf180mcu_fd_sc_mcu7t5v0__nor4_4
*I *1519:I I *D gf180mcu_fd_sc_mcu7t5v0__buf_2
*I *1428:Q O *D gf180mcu_fd_sc_mcu7t5v0__dffrnq_1
*CAP
1 *1341:A2 5.99307e-05
2 *1325:A2 0.000243694
3 *1519:I 0.000612531
4 *1428:Q 0
5 *205:25 0.000967361
6 *205:4 0.00127627
7 *1325:A2 *290:40 7.40648e-05
8 *1325:A2 *290:55 6.64889e-05
9 *1325:A2 *290:61 6.04444e-06
10 *1341:A2 *1329:A3 0.000428709
11 *1519:I *1477:I 4.81515e-05
12 *1519:I *240:23 2.31729e-05
13 *1519:I *312:29 0.000244627
14 *205:25 *1321:A1 0.000289075
15 *205:25 *1329:A3 4.74912e-05
16 *205:25 *243:67 9.85379e-05
17 *205:25 *272:59 0.000598466
18 *1350:B *1519:I 0.000734287
19 *1357:A2 *205:25 0.00108008
20 *170:30 *1341:A2 0.000111324
21 *170:30 *205:25 0.00131934
*RES
1 *1428:Q *205:4 4.5 
2 *205:4 *1519:I 8.984 
3 *205:4 *205:25 17.132 
4 *205:25 *1325:A2 14.792 
5 *205:25 *1341:A2 5.64 
*END

*D_NET *206 0.0183526
*CONN
*I *1341:A4 I *D gf180mcu_fd_sc_mcu7t5v0__nor4_4
*I *1272:A4 I *D gf180mcu_fd_sc_mcu7t5v0__or4_2
*I *1336:A2 I *D gf180mcu_fd_sc_mcu7t5v0__nor2_1
*I *1249:I I *D gf180mcu_fd_sc_mcu7t5v0__inv_2
*I *1271:A2 I *D gf180mcu_fd_sc_mcu7t5v0__nor2_1
*I *1429:Q O *D gf180mcu_fd_sc_mcu7t5v0__dffrnq_2
*CAP
1 *1341:A4 0.000319665
2 *1272:A4 1.31358e-05
3 *1336:A2 0
4 *1249:I 0.000393756
5 *1271:A2 0.00166476
6 *1429:Q 0
7 *206:43 0.000930138
8 *206:22 0.00279259
9 *206:14 0.0014691
10 *206:6 0.00118418
11 *1249:I *400:I 0.000761668
12 *1249:I *1548:I 0.000402651
13 *1249:I *296:36 0
14 *1272:A4 *280:10 0.000108934
15 *1272:A4 *292:47 0.000133843
16 *1341:A4 *1337:A1 0
17 *1341:A4 *290:129 4.38516e-05
18 *1341:A4 *290:188 1.62487e-05
19 *206:14 *233:22 0.000286276
20 *206:14 *290:129 0.000171735
21 *206:14 *302:27 2.98131e-06
22 *206:22 *1265:I 0.000887079
23 *206:22 *1270:A2 0.000457731
24 *206:22 *230:41 0
25 *206:22 *233:22 0.000115175
26 *206:22 *280:10 0.000357912
27 *206:22 *280:31 3.72321e-05
28 *206:22 *292:47 0.000403204
29 *206:43 *1379:A1 0.000613002
30 *206:43 *296:36 0.000187776
31 *1325:A4 *1341:A4 3.38043e-05
32 *1336:A1 *1249:I 0.00127723
33 *1336:A1 *206:43 4.50449e-05
34 *1357:B *1271:A2 0
35 *1363:B *1249:I 0.000148337
36 *1363:B *206:22 0.000128955
37 *1366:A2 *206:14 0.000116395
38 *1366:A2 *206:43 7.88457e-05
39 *1372:B *206:43 0.000179853
40 *1402:A2 *206:14 0.000561259
41 *1511:I *1249:I 0.000145294
42 *86:20 *1271:A2 0.000422279
43 *86:20 *206:43 0.000138882
44 *97:8 *1249:I 0.000343551
45 *104:12 *1249:I 0.000152028
46 *108:14 *206:14 0.00021594
47 *110:14 *206:14 0.000189639
48 *122:20 *206:43 0.000176625
49 *177:24 *1341:A4 0.000133341
50 *177:24 *206:14 4.37185e-05
51 *187:24 *1271:A2 4.68915e-05
52 *192:8 *206:14 2.01074e-05
*RES
1 *1429:Q *206:6 9 
2 *206:6 *206:14 15.992 
3 *206:14 *206:22 10.2 
4 *206:22 *1271:A2 21.784 
5 *206:22 *206:43 13.636 
6 *206:43 *1249:I 19.124 
7 *206:43 *1336:A2 4.5 
8 *206:14 *1272:A4 9.38 
9 *206:6 *1341:A4 10.976 
*END

*D_NET *207 0.005709
*CONN
*I *1518:I I *D gf180mcu_fd_sc_mcu7t5v0__buf_2
*I *1329:A3 I *D gf180mcu_fd_sc_mcu7t5v0__nor4_4
*I *1430:Q O *D gf180mcu_fd_sc_mcu7t5v0__dffsnq_1
*CAP
1 *1518:I 0.000330178
2 *1329:A3 0.000130014
3 *1430:Q 0.000130107
4 *207:12 0.000590299
5 *1329:A3 *1321:A1 0.000258182
6 *1329:A3 *243:67 0.000868485
7 *1329:A3 *266:20 0.000314611
8 *1518:I *374:I 0.000241755
9 *1518:I *266:20 6.28231e-05
10 *1518:I *290:10 0.000313033
11 *1518:I *336:31 0.000870495
12 *207:12 *1331:A1 4.29636e-06
13 *207:12 *266:20 0.00013063
14 *1341:A2 *1329:A3 0.000428709
15 *1365:B1 *207:12 4.53009e-05
16 *1371:B *1329:A3 9.25001e-05
17 *1371:B *207:12 2.11799e-05
18 *108:43 *1518:I 0.000384386
19 *108:43 *207:12 0.000432986
20 *170:30 *1329:A3 4.44591e-06
21 *172:22 *207:12 5.13352e-06
22 *177:24 *1518:I 1.96063e-06
23 *205:25 *1329:A3 4.74912e-05
*RES
1 *1430:Q *207:12 15.02 
2 *207:12 *1329:A3 7.768 
3 *207:12 *1518:I 17.072 
*END

*D_NET *208 0.0648582
*CONN
*I *428:I I *D gf180mcu_fd_sc_mcu7t5v0__antenna
*I *415:I I *D gf180mcu_fd_sc_mcu7t5v0__antenna
*I *1472:I I *D gf180mcu_fd_sc_mcu7t5v0__clkbuf_8
*I *1484:I I *D gf180mcu_fd_sc_mcu7t5v0__clkbuf_8
*I *1471:I I *D gf180mcu_fd_sc_mcu7t5v0__clkbuf_8
*I *414:I I *D gf180mcu_fd_sc_mcu7t5v0__antenna
*I *427:I I *D gf180mcu_fd_sc_mcu7t5v0__antenna
*I *1485:I I *D gf180mcu_fd_sc_mcu7t5v0__clkbuf_8
*I *1482:I I *D gf180mcu_fd_sc_mcu7t5v0__clkbuf_8
*I *1473:I I *D gf180mcu_fd_sc_mcu7t5v0__clkbuf_8
*I *416:I I *D gf180mcu_fd_sc_mcu7t5v0__antenna
*I *419:I I *D gf180mcu_fd_sc_mcu7t5v0__antenna
*I *1476:I I *D gf180mcu_fd_sc_mcu7t5v0__clkbuf_8
*I *418:I I *D gf180mcu_fd_sc_mcu7t5v0__antenna
*I *1474:I I *D gf180mcu_fd_sc_mcu7t5v0__clkbuf_8
*I *417:I I *D gf180mcu_fd_sc_mcu7t5v0__antenna
*I *1475:I I *D gf180mcu_fd_sc_mcu7t5v0__clkbuf_8
*I *412:I I *D gf180mcu_fd_sc_mcu7t5v0__antenna
*I *413:I I *D gf180mcu_fd_sc_mcu7t5v0__antenna
*I *421:I I *D gf180mcu_fd_sc_mcu7t5v0__antenna
*I *426:I I *D gf180mcu_fd_sc_mcu7t5v0__antenna
*I *423:I I *D gf180mcu_fd_sc_mcu7t5v0__antenna
*I *1483:I I *D gf180mcu_fd_sc_mcu7t5v0__clkbuf_8
*I *424:I I *D gf180mcu_fd_sc_mcu7t5v0__antenna
*I *1481:I I *D gf180mcu_fd_sc_mcu7t5v0__clkbuf_8
*I *425:I I *D gf180mcu_fd_sc_mcu7t5v0__antenna
*I *1480:I I *D gf180mcu_fd_sc_mcu7t5v0__clkbuf_8
*I *420:I I *D gf180mcu_fd_sc_mcu7t5v0__antenna
*I *1477:I I *D gf180mcu_fd_sc_mcu7t5v0__clkbuf_8
*I *422:I I *D gf180mcu_fd_sc_mcu7t5v0__antenna
*I *1470:I I *D gf180mcu_fd_sc_mcu7t5v0__clkbuf_8
*I *1479:I I *D gf180mcu_fd_sc_mcu7t5v0__clkbuf_8
*I *1478:I I *D gf180mcu_fd_sc_mcu7t5v0__clkbuf_8
*I *1469:Z O *D gf180mcu_fd_sc_mcu7t5v0__clkbuf_16
*CAP
1 *428:I 0
2 *415:I 0.000989
3 *1472:I 0
4 *1484:I 0.000298035
5 *1471:I 4.06345e-05
6 *414:I 0.000956914
7 *427:I 2.47152e-05
8 *1485:I 0
9 *1482:I 1.72375e-05
10 *1473:I 0.000221322
11 *416:I 0
12 *419:I 0.000901181
13 *1476:I 0.000199558
14 *418:I 3.37676e-05
15 *1474:I 0.000316378
16 *417:I 8.87791e-05
17 *1475:I 0.000405071
18 *412:I 0.000298342
19 *413:I 3.10542e-05
20 *421:I 0.000378842
21 *426:I 0
22 *423:I 0.000217778
23 *1483:I 0
24 *424:I 0.000859161
25 *1481:I 0.00016015
26 *425:I 0
27 *1480:I 0.000574769
28 *420:I 0
29 *1477:I 0.000179812
30 *422:I 3.64513e-05
31 *1470:I 0.000676573
32 *1479:I 0.000450959
33 *1478:I 0.000561454
34 *1469:Z 0.000643293
35 *208:457 0.00146902
36 *208:401 0.00112485
37 *208:399 0.000627723
38 *208:397 0.00118158
39 *208:385 0.000749235
40 *208:371 0.000578178
41 *208:303 0.000233325
42 *208:301 0.00123551
43 *208:279 0.000967132
44 *208:267 0.000967045
45 *208:265 0.000976394
46 *208:251 0.00134381
47 *208:249 0.000630657
48 *208:241 0.000957445
49 *208:229 0.000673303
50 *208:215 0.000638941
51 *208:205 0.000352435
52 *208:151 0.00127986
53 *208:147 0.000769565
54 *208:139 0.000923188
55 *208:135 0.000848552
56 *208:131 0.000532423
57 *208:123 0.00117602
58 *208:107 0.00185323
59 *208:87 0.000201088
60 *208:85 0.00084855
61 *208:69 0.00076472
62 *208:23 0.00124044
63 *208:21 0.00116004
64 *208:19 0.00142305
65 *208:15 0.00182779
66 *208:11 0.00104284
67 *412:I *429:I 1.10625e-06
68 *412:I *1344:A1 2.05871e-05
69 *412:I *270:10 0.000143913
70 *412:I *270:37 5.00318e-05
71 *412:I *274:155 6.58016e-05
72 *412:I *338:28 0
73 *414:I *1280:A1 0.000142942
74 *414:I *1281:A1 8.26848e-05
75 *414:I *1460:CLK 5.11745e-05
76 *414:I *239:97 0.000248638
77 *414:I *296:116 6.13591e-05
78 *415:I *1279:A2 5.8421e-05
79 *415:I *1411:A2 3.4686e-05
80 *415:I *211:52 3.45972e-05
81 *415:I *226:12 0.000281441
82 *415:I *310:16 6.15433e-05
83 *417:I *241:111 0.000149295
84 *418:I *276:203 0.000173843
85 *418:I *296:116 0.000199171
86 *419:I *354:I 1.3174e-05
87 *419:I *444:I 7.98237e-05
88 *419:I *1355:A1 2.23598e-06
89 *419:I *1355:A2 4.76887e-05
90 *419:I *1492:I 0
91 *419:I *248:71 0
92 *419:I *272:78 0
93 *419:I *272:186 6.44309e-05
94 *421:I *1323:A1 0.000324574
95 *421:I *334:14 6.64203e-05
96 *421:I *335:12 0
97 *422:I *1428:CLK 0
98 *422:I *1572:I 6.65471e-08
99 *423:I *267:18 4.58601e-06
100 *423:I *334:24 3.66906e-05
101 *424:I *404:I 1.21291e-05
102 *424:I *1314:A1 4.09767e-05
103 *424:I *1387:I1 0.000143955
104 *424:I *1496:I 4.00797e-05
105 *424:I *232:56 0.000227011
106 *424:I *241:88 1.42593e-05
107 *424:I *274:159 1.12522e-05
108 *424:I *289:14 0.000115002
109 *424:I *332:40 9.15947e-05
110 *427:I *231:16 1.49813e-05
111 *1470:I *1264:I 5.87561e-06
112 *1470:I *1361:A2 0
113 *1470:I *1373:B 1.90594e-05
114 *1470:I *1549:I 4.97222e-05
115 *1470:I *244:39 6.3203e-05
116 *1470:I *289:99 3.37994e-05
117 *1470:I *302:27 1.15244e-05
118 *1471:I *1465:RN 5.90898e-05
119 *1471:I *288:20 7.15162e-06
120 *1473:I *1530:I 2.16541e-05
121 *1473:I *274:155 0.000317725
122 *1474:I *1394:I0 0.000354298
123 *1474:I *1424:CLK 0
124 *1474:I *323:16 4.14679e-05
125 *1475:I *350:I 0
126 *1475:I *358:I 0.000110072
127 *1475:I *1342:B 0.000146685
128 *1475:I *274:114 0
129 *1475:I *339:12 0.000145308
130 *1476:I *1492:I 2.12405e-05
131 *1476:I *276:192 0
132 *1476:I *276:203 2.13077e-05
133 *1476:I *296:116 3.24134e-05
134 *1477:I *240:23 0
135 *1477:I *312:29 0.000188493
136 *1478:I *1449:RN 6.20599e-07
137 *1478:I *230:41 0.000237499
138 *1478:I *265:42 3.83108e-05
139 *1478:I *299:17 1.46041e-05
140 *1479:I *1270:A1 7.21887e-05
141 *1479:I *1548:I 0.000134671
142 *1479:I *289:99 0.000335531
143 *1480:I *1399:A2 8.41372e-05
144 *1480:I *229:51 0
145 *1480:I *291:18 5.4832e-05
146 *1481:I *1437:RN 0
147 *1481:I *289:14 8.68622e-05
148 *1481:I *332:40 2.02488e-05
149 *1482:I *1362:A2 3.00299e-05
150 *1482:I *1437:RN 1.15312e-05
151 *1484:I *1465:RN 3.69906e-05
152 *208:11 *229:72 0
153 *208:11 *229:83 0
154 *208:11 *276:14 0.00040695
155 *208:11 *276:20 3.59169e-05
156 *208:11 *343:12 5.43628e-05
157 *208:15 *1376:A2 0.000181006
158 *208:15 *1403:A1 1.59563e-05
159 *208:15 *1515:I 2.67869e-05
160 *208:15 *231:22 1.62509e-05
161 *208:15 *276:20 5.69231e-05
162 *208:15 *276:147 0.000120726
163 *208:15 *343:12 9.69716e-05
164 *208:19 *1376:A2 0
165 *208:19 *1405:A1 6.24439e-06
166 *208:19 *1428:CLK 0.000163982
167 *208:19 *1515:I 6.20599e-07
168 *208:19 *1572:I 6.21706e-05
169 *208:19 *276:46 0.000286329
170 *208:19 *293:22 0.000128864
171 *208:21 *230:41 0.000181565
172 *208:21 *272:59 0
173 *208:23 *230:41 0.000131806
174 *208:69 *230:41 9.43622e-05
175 *208:69 *272:59 0
176 *208:85 *1349:A1 0.00015945
177 *208:85 *1572:I 0.000256565
178 *208:85 *230:41 0.000478215
179 *208:85 *240:23 0
180 *208:85 *272:59 0
181 *208:85 *312:29 0.000171895
182 *208:87 *312:29 3.58923e-05
183 *208:107 *272:59 0.00024191
184 *208:123 *1399:A2 2.66673e-05
185 *208:123 *230:41 0.000467951
186 *208:123 *312:29 0
187 *208:123 *335:49 0.000122228
188 *208:131 *1362:A2 0.000141897
189 *208:131 *1437:RN 4.13816e-05
190 *208:147 *1318:B 9.17202e-06
191 *208:147 *1322:B 0
192 *208:147 *267:18 9.1255e-05
193 *208:151 *1318:B 8.6334e-05
194 *208:151 *267:18 0.000413142
195 *208:205 *1323:A1 0
196 *208:205 *241:88 6.73926e-05
197 *208:205 *334:24 0
198 *208:215 *241:88 0.000134564
199 *208:229 *241:88 9.3257e-05
200 *208:241 *450:I 9.92506e-05
201 *208:241 *241:88 0.000356887
202 *208:241 *241:111 0.000149336
203 *208:249 *1391:I0 8.79023e-05
204 *208:249 *274:155 0.000198978
205 *208:251 *1335:A1 0.000112082
206 *208:251 *1531:I 0.000163385
207 *208:251 *1532:I 5.8247e-07
208 *208:251 *270:10 6.31714e-05
209 *208:251 *274:155 0.000168777
210 *208:265 *1319:A1 0.000346256
211 *208:279 *350:I 0
212 *208:279 *1392:I0 1.48048e-05
213 *208:279 *1394:I0 0.000195489
214 *208:279 *339:10 0.000219919
215 *208:279 *339:12 0.000219653
216 *208:301 *1319:A1 0.000114437
217 *208:301 *272:78 0
218 *208:371 *1290:A2 0.000199702
219 *208:371 *1515:I 6.82528e-06
220 *208:371 *231:22 0
221 *208:371 *293:22 1.38099e-05
222 *208:385 *1290:A2 7.70742e-05
223 *208:385 *224:12 0.000104131
224 *208:385 *224:19 2.07222e-05
225 *208:397 *1601:I 0.000257938
226 *208:397 *231:16 0.00027203
227 *208:399 *376:I 2.02486e-05
228 *208:399 *1460:CLK 4.90417e-05
229 *208:399 *288:20 6.69116e-05
230 *208:401 *1460:CLK 3.03078e-05
231 *208:401 *288:20 3.08621e-05
232 *208:457 *1460:CLK 1.08637e-05
233 *208:457 *341:14 0
234 *208:457 *344:27 7.53143e-06
235 dac_p[1] *1470:I 1.15312e-05
236 dac_p[1] *1478:I 0.000104143
237 dac_p[1] *208:21 4.50074e-05
238 dac_p[1] *208:23 9.44743e-05
239 dac_p[5] *1478:I 9.38722e-05
240 *382:I *415:I 0.000211844
241 *385:I *419:I 0
242 *390:I *419:I 5.01959e-06
243 *398:I *414:I 0.000245882
244 *1282:A2 *415:I 5.90327e-05
245 *1289:A2 *415:I 3.13605e-05
246 *1297:A1 *415:I 0
247 *1299:B *415:I 0.000326445
248 *1300:A2 *208:457 9.83942e-05
249 *1313:A2 *1480:I 1.56976e-05
250 *1320:A2 *208:151 2.40935e-05
251 *1321:A2 *208:123 1.91917e-06
252 *1324:B *417:I 0.000149295
253 *1324:B *208:205 2.30587e-05
254 *1324:B *208:215 5.47731e-05
255 *1324:B *208:229 0.000237936
256 *1324:B *208:241 0.00080927
257 *1328:A2 *208:123 0
258 *1328:A2 *208:135 0.000321275
259 *1328:B *208:123 0
260 *1328:B *208:135 6.57519e-05
261 *1328:B *208:205 5.32963e-06
262 *1329:A1 *1480:I 8.27435e-05
263 *1329:A1 *208:123 0
264 *1329:A4 *208:123 0.000192532
265 *1343:A2 *208:11 1.26466e-05
266 *1359:B *208:123 0.000246836
267 *1359:B *208:135 0
268 *1363:B *1479:I 0.000137186
269 *1369:A2 *208:385 9.86353e-05
270 *1377:A2 *208:397 0.000485215
271 *1377:A3 *208:385 7.013e-06
272 *1383:A3 *414:I 5.43483e-05
273 *1384:A1 *414:I 4.6788e-05
274 *1397:A2 *208:19 0
275 *1398:I1 *1470:I 5.63029e-05
276 *1400:A3 *208:85 3.26577e-05
277 *1401:A2 *422:I 6.73834e-05
278 *1401:A2 *208:19 5.84867e-06
279 *1402:A2 *208:19 0.000172754
280 *1403:B *208:11 8.60808e-05
281 *1405:B *208:19 3.51943e-05
282 *1413:B2 *415:I 4.0515e-05
283 *1413:B2 *208:457 2.79958e-05
284 *1422:D *1473:I 0.000182617
285 *1422:D *208:249 0.000226693
286 *1424:D *1474:I 0
287 *1429:D *208:19 0.000115565
288 *1432:D *415:I 8.96874e-05
289 *1439:D *423:I 2.30549e-05
290 *1439:D *208:135 0
291 *1444:D *412:I 2.36431e-05
292 *1462:D *1471:I 0
293 *1462:D *1484:I 0.000298167
294 *1463:D *1475:I 3.12307e-06
295 *1466:D *208:457 0.000267949
296 *1501:I *1470:I 3.38043e-05
297 *1502:I *412:I 0.000137528
298 *1506:I *208:11 6.75124e-05
299 *1507:I *1480:I 3.37994e-05
300 *1511:I *208:19 4.1997e-05
301 *1519:I *1477:I 4.81515e-05
302 *1546:I *1480:I 8.5098e-05
303 *4:30 *427:I 3.5548e-05
304 *4:30 *208:371 5.21115e-05
305 *4:30 *208:385 0.00016664
306 *4:30 *208:397 0.000188354
307 *94:54 *208:107 0.000124476
308 *95:16 *208:123 2.86762e-07
309 *99:12 *415:I 3.33303e-05
310 *111:28 *414:I 6.92484e-05
311 *118:14 *208:11 3.17196e-05
312 *118:14 *208:19 1.34859e-05
313 *123:16 *208:15 7.5555e-05
314 *123:16 *208:19 2.97266e-06
315 *123:65 *415:I 0
316 *124:16 *414:I 5.32963e-06
317 *124:16 *208:399 9.7459e-05
318 *124:16 *208:401 5.60994e-05
319 *124:16 *208:457 5.46847e-05
320 *126:28 *414:I 1.09935e-05
321 *127:12 *415:I 9.39946e-05
322 *127:12 *208:457 5.72932e-05
323 *146:36 *423:I 1.01183e-05
324 *159:41 *208:11 9.84948e-06
325 *168:35 *415:I 0.0002078
326 *172:22 *419:I 0.000124253
327 *172:22 *208:265 0.000971916
328 *172:22 *208:301 0.000521935
329 *172:57 *419:I 8.36673e-05
330 *191:34 *414:I 0.000191273
*RES
1 *1469:Z *208:11 13.408 
2 *208:11 *208:15 7.464 
3 *208:15 *208:19 11.568 
4 *208:19 *208:21 1.748 
5 *208:21 *208:23 1.596 
6 *208:23 *1478:I 12.496 
7 *208:23 *1479:I 12.724 
8 *208:21 *1470:I 13.18 
9 *208:19 *208:69 0.684 
10 *208:69 *422:I 9.38 
11 *208:69 *208:85 10.124 
12 *208:85 *208:87 0.228 
13 *208:87 *1477:I 5.792 
14 *208:87 *420:I 4.5 
15 *208:85 *208:107 10.596 
16 *208:107 *1480:I 8.072 
17 *208:107 *208:123 16.296 
18 *208:123 *425:I 4.5 
19 *208:123 *208:131 0.836 
20 *208:131 *208:135 7.312 
21 *208:135 *208:139 5.488 
22 *208:139 *208:147 11.28 
23 *208:147 *208:151 7.008 
24 *208:151 *1481:I 10.064 
25 *208:151 *424:I 14.7 
26 *208:147 *1483:I 4.5 
27 *208:139 *423:I 14.792 
28 *208:135 *208:205 6.02 
29 *208:205 *426:I 4.5 
30 *208:205 *208:215 1.216 
31 *208:215 *421:I 16.008 
32 *208:215 *208:229 1.444 
33 *208:229 *413:I 4.88 
34 *208:229 *208:241 9.744 
35 *208:241 *208:249 11.28 
36 *208:249 *208:251 2.964 
37 *208:251 *412:I 11.204 
38 *208:251 *208:265 10.048 
39 *208:265 *208:267 4.5 
40 *208:267 *1475:I 11.508 
41 *208:267 *208:279 3.876 
42 *208:279 *417:I 9.988 
43 *208:279 *1474:I 11.356 
44 *208:265 *208:301 3.116 
45 *208:301 *208:303 4.5 
46 *208:303 *418:I 9.988 
47 *208:303 *1476:I 10.216 
48 *208:301 *419:I 18.668 
49 *208:249 *416:I 9 
50 *208:241 *1473:I 11.052 
51 *208:131 *1482:I 4.728 
52 *208:15 *208:371 2.356 
53 *208:371 *1485:I 4.5 
54 *208:371 *208:385 11.128 
55 *208:385 *427:I 4.728 
56 *208:385 *208:397 9.288 
57 *208:397 *208:399 1.444 
58 *208:399 *208:401 0.836 
59 *208:401 *414:I 24.688 
60 *208:401 *1471:I 9.38 
61 *208:399 *1484:I 11.28 
62 *208:397 *208:457 7.54 
63 *208:457 *1472:I 4.5 
64 *208:457 *415:I 30.48 
65 *208:11 *428:I 9 
*END

*D_NET *209 0.00899231
*CONN
*I *1426:CLK I *D gf180mcu_fd_sc_mcu7t5v0__dffrnq_1
*I *1456:CLK I *D gf180mcu_fd_sc_mcu7t5v0__dffrnq_1
*I *1448:CLK I *D gf180mcu_fd_sc_mcu7t5v0__dffrnq_1
*I *1459:CLK I *D gf180mcu_fd_sc_mcu7t5v0__dffsnq_1
*I *1470:Z O *D gf180mcu_fd_sc_mcu7t5v0__clkbuf_8
*CAP
1 *1426:CLK 0.000360785
2 *1456:CLK 0
3 *1448:CLK 0.000398109
4 *1459:CLK 0.000184473
5 *1470:Z 0.00037909
6 *209:25 0.000431063
7 *209:23 0.000416487
8 *209:6 0.000586311
9 *1426:CLK *1262:I 0.000358337
10 *1426:CLK *1304:A2 1.21336e-05
11 *1426:CLK *1598:I 0
12 *1426:CLK *241:6 0.00010635
13 *1448:CLK *1262:I 0
14 *1448:CLK *1271:A1 0.000353393
15 *1448:CLK *1575:I 6.20836e-06
16 *1448:CLK *265:42 0.000128893
17 *1448:CLK *281:35 1.2018e-05
18 *1448:CLK *281:43 0
19 *1459:CLK *1304:A1 0.000197957
20 *1459:CLK *1573:I 0.000121186
21 *209:6 *1361:A1 1.3458e-05
22 *209:6 *1448:RN 4.47134e-05
23 *209:6 *1575:I 3.60751e-05
24 *209:6 *243:8 0.000132595
25 *209:23 *1271:A1 0.00056232
26 *209:25 *1271:A1 0.00029336
27 dac_p[4] *1448:CLK 0.000757983
28 *399:I *1459:CLK 6.51051e-05
29 *399:I *209:6 0.000146353
30 *1354:B *1448:CLK 0.000709396
31 *1354:B *209:23 0.000535132
32 *1354:B *209:25 0.000269365
33 *1363:B *209:6 0.000455099
34 *1396:A1 *1448:CLK 0
35 *1426:D *1426:CLK 5.8238e-05
36 *1426:D *1459:CLK 2.98131e-06
37 *1426:D *209:6 2.23598e-06
38 *1446:D *1448:CLK 5.84514e-05
39 *1447:D *1459:CLK 0.000396912
40 *1456:D *1426:CLK 2.6126e-05
41 *47:8 *1459:CLK 5.87561e-06
42 *134:26 *1426:CLK 3.12138e-06
43 *168:28 *1448:CLK 0.000364619
*RES
1 *1470:Z *209:6 7.616 
2 *209:6 *1459:CLK 15.628 
3 *209:6 *209:23 5.944 
4 *209:23 *209:25 0.836 
5 *209:25 *1448:CLK 14.32 
6 *209:25 *1456:CLK 9 
7 *209:23 *1426:CLK 11.432 
*END

*D_NET *210 0.00679686
*CONN
*I *1500:I I *D gf180mcu_fd_sc_mcu7t5v0__clkbuf_2
*I *1458:CLK I *D gf180mcu_fd_sc_mcu7t5v0__dffrnq_1
*I *1457:CLK I *D gf180mcu_fd_sc_mcu7t5v0__dffsnq_1
*I *1461:CLK I *D gf180mcu_fd_sc_mcu7t5v0__dffrnq_1
*I *1471:Z O *D gf180mcu_fd_sc_mcu7t5v0__clkbuf_8
*CAP
1 *1500:I 0
2 *1458:CLK 0.000349214
3 *1457:CLK 0
4 *1461:CLK 6.7353e-05
5 *1471:Z 7.92004e-06
6 *210:23 0.00117911
7 *210:17 0.00111764
8 *210:6 0.000363016
9 *210:6 *1460:CLK 3.08902e-05
10 *210:17 *1381:A1 0.000390519
11 *210:17 *288:32 0.00073014
12 *210:17 *288:34 0.000291295
13 *210:17 *341:14 4.47503e-06
14 *210:23 *1381:A1 0.000143199
15 *210:23 *1566:I 9.88736e-06
16 *210:23 *235:22 0
17 dac_n[5] *210:23 6.10753e-05
18 dac_n[6] *1458:CLK 0.000165369
19 dac_n[6] *210:23 0.000493247
20 *1383:A1 *1461:CLK 0.00041339
21 *1383:A1 *210:6 5.94067e-05
22 *1383:A3 *1461:CLK 0.00017245
23 *1383:A3 *210:6 2.23477e-05
24 *1457:D *1458:CLK 0.000135936
25 *86:20 *210:17 2.20592e-05
26 *86:20 *210:23 0.00011954
27 *100:31 *210:17 0.000447381
*RES
1 *1471:Z *210:6 4.728 
2 *210:6 *1461:CLK 5.64 
3 *210:6 *210:17 8.376 
4 *210:17 *210:23 10.124 
5 *210:23 *1457:CLK 4.5 
6 *210:23 *1458:CLK 7.312 
7 *210:17 *1500:I 9 
*END

*D_NET *211 0.0103903
*CONN
*I *1431:CLK I *D gf180mcu_fd_sc_mcu7t5v0__dffrnq_1
*I *1432:CLK I *D gf180mcu_fd_sc_mcu7t5v0__dffrnq_1
*I *1488:I I *D gf180mcu_fd_sc_mcu7t5v0__clkbuf_2
*I *1460:CLK I *D gf180mcu_fd_sc_mcu7t5v0__dffrnq_1
*I *1472:Z O *D gf180mcu_fd_sc_mcu7t5v0__clkbuf_8
*CAP
1 *1431:CLK 0.000287561
2 *1432:CLK 0
3 *1488:I 0.000410066
4 *1460:CLK 0.000728823
5 *1472:Z 0.00139229
6 *211:52 0.000540963
7 *1431:CLK *1300:B 0.000185839
8 *1431:CLK *271:8 0.000297265
9 *1431:CLK *310:16 5.48648e-05
10 *1460:CLK *1280:A1 1.76386e-05
11 *1460:CLK *1601:I 8.52954e-05
12 *1460:CLK *288:20 9.7375e-05
13 *1460:CLK *288:26 8.81387e-05
14 *1460:CLK *288:32 0.000160748
15 *1460:CLK *341:14 0.000123553
16 *1488:I *1299:A2 4.71391e-05
17 *1488:I *1375:A2 0.000162839
18 *1488:I *1375:A3 0.000192577
19 *1488:I *1408:A2 0.00018435
20 *1488:I *1410:A2 7.98484e-05
21 *1488:I *1529:I 0.000576524
22 *211:52 *1300:B 0.000350836
23 *211:52 *225:14 0
24 *211:52 *225:20 6.35905e-06
25 *414:I *1460:CLK 5.11745e-05
26 *415:I *211:52 3.45972e-05
27 *1273:A2 *1460:CLK 1.30364e-05
28 *1299:B *211:52 0.000190317
29 *1377:A2 *1460:CLK 8.52954e-05
30 *1383:A1 *1460:CLK 0.000135349
31 *1383:A3 *1460:CLK 0.000351431
32 *1408:A3 *1488:I 0.000108913
33 *1410:A3 *1488:I 0.000583434
34 *1412:B1 *1488:I 0.00127618
35 *1415:A2 *1431:CLK 7.59985e-05
36 *1415:A2 *211:52 4.15892e-05
37 *1466:D *1488:I 0.00011628
38 *1466:D *211:52 0.000608719
39 *100:31 *1460:CLK 0.000516116
40 *123:65 *211:52 9.88736e-06
41 *208:399 *1460:CLK 4.90417e-05
42 *208:401 *1460:CLK 3.03078e-05
43 *208:457 *1460:CLK 1.08637e-05
44 *210:6 *1460:CLK 3.08902e-05
*RES
1 *1472:Z *1460:CLK 24.156 
2 *1472:Z *1488:I 15.612 
3 *1472:Z *211:52 16.236 
4 *211:52 *1432:CLK 4.5 
5 *211:52 *1431:CLK 6.932 
*END

*D_NET *212 0.0127331
*CONN
*I *1441:CLK I *D gf180mcu_fd_sc_mcu7t5v0__dffrnq_1
*I *1489:I I *D gf180mcu_fd_sc_mcu7t5v0__clkbuf_2
*I *1443:CLK I *D gf180mcu_fd_sc_mcu7t5v0__dffrnq_1
*I *1425:CLK I *D gf180mcu_fd_sc_mcu7t5v0__dffrnq_1
*I *1421:CLK I *D gf180mcu_fd_sc_mcu7t5v0__dffrnq_1
*I *1473:Z O *D gf180mcu_fd_sc_mcu7t5v0__clkbuf_8
*CAP
1 *1441:CLK 0.000328847
2 *1489:I 0.000100977
3 *1443:CLK 0.000531604
4 *1425:CLK 0
5 *1421:CLK 5.99398e-05
6 *1473:Z 0.000328847
7 *212:28 0.000838372
8 *212:13 0.000421736
9 *212:4 0.000275885
10 *1421:CLK *322:16 0.000148743
11 *1441:CLK *355:I 0.000526775
12 *1441:CLK *1558:I 0.000245881
13 *1441:CLK *322:16 4.52275e-06
14 *1443:CLK *350:I 0.00116662
15 *1443:CLK *1340:A1 0.000112617
16 *1443:CLK *213:21 0.000197206
17 *1443:CLK *248:89 0
18 *1443:CLK *276:192 0.00110727
19 *1489:I *1323:A1 6.77807e-05
20 *1489:I *339:10 0.000626531
21 *212:13 *361:I 1.34164e-05
22 *212:13 *1422:CLK 0.000772365
23 *212:13 *1442:RN 0.000298184
24 *212:13 *322:16 0.000201598
25 *212:28 *350:I 0.000150319
26 *212:28 *1422:CLK 0.000538429
27 *212:28 *1442:RN 0.000512303
28 *212:28 *213:8 4.7095e-05
29 *212:28 *213:21 0.000662322
30 *212:28 *241:111 6.23713e-06
31 *212:28 *339:10 0.00012749
32 *1324:B *1421:CLK 0.00035777
33 *1324:B *212:13 0.000604504
34 *1340:A2 *1443:CLK 0.000360235
35 *1344:B *1443:CLK 5.19077e-05
36 *1421:D *1441:CLK 5.08999e-05
37 *1422:D *1441:CLK 8.55327e-05
38 *1441:D *1441:CLK 2.9378e-06
39 *1443:D *1443:CLK 8.50132e-06
40 *146:36 *1489:I 0.000654768
41 *146:36 *212:13 2.06245e-06
42 *146:36 *212:28 0.000134048
*RES
1 *1473:Z *212:4 4.5 
2 *212:4 *1421:CLK 5.488 
3 *212:4 *212:13 3.42 
4 *212:13 *1425:CLK 4.5 
5 *212:13 *212:28 12.724 
6 *212:28 *1443:CLK 19.732 
7 *212:28 *1489:I 6.704 
8 *1473:Z *1441:CLK 11.812 
*END

*D_NET *213 0.00586532
*CONN
*I *1423:CLK I *D gf180mcu_fd_sc_mcu7t5v0__dffrnq_1
*I *1490:I I *D gf180mcu_fd_sc_mcu7t5v0__clkbuf_2
*I *1442:CLK I *D gf180mcu_fd_sc_mcu7t5v0__dffrnq_1
*I *1422:CLK I *D gf180mcu_fd_sc_mcu7t5v0__dffrnq_1
*I *1474:Z O *D gf180mcu_fd_sc_mcu7t5v0__clkbuf_8
*CAP
1 *1423:CLK 0
2 *1490:I 0.000103136
3 *1442:CLK 2.14662e-05
4 *1422:CLK 0.000238887
5 *1474:Z 0.000173773
6 *213:21 0.000698914
7 *213:8 0.000955225
8 *213:6 0.000315799
9 *1422:CLK *1334:A1 0.000142292
10 *1422:CLK *322:16 0.000507693
11 *1442:CLK *406:I 6.73834e-05
12 *1442:CLK *276:192 3.62081e-05
13 *1490:I *406:I 7.41459e-05
14 *1490:I *276:192 2.50854e-05
15 *213:6 *241:111 4.94986e-05
16 *213:8 *241:111 3.40006e-05
17 *213:21 *350:I 7.14976e-06
18 *213:21 *451:I 8.32999e-05
19 *213:21 *248:89 0
20 *213:21 *337:29 0.000113945
21 *1443:CLK *213:21 0.000197206
22 *212:13 *1422:CLK 0.000772365
23 *212:28 *1422:CLK 0.000538429
24 *212:28 *213:8 4.7095e-05
25 *212:28 *213:21 0.000662322
*RES
1 *1474:Z *213:6 5.488 
2 *213:6 *213:8 0.836 
3 *213:8 *1422:CLK 8.072 
4 *213:8 *213:21 13.332 
5 *213:21 *1442:CLK 4.88 
6 *213:21 *1490:I 5.26 
7 *213:6 *1423:CLK 4.5 
*END

*D_NET *214 0.00737417
*CONN
*I *1433:CLK I *D gf180mcu_fd_sc_mcu7t5v0__dffrnq_1
*I *1434:CLK I *D gf180mcu_fd_sc_mcu7t5v0__dffrnq_1
*I *1491:I I *D gf180mcu_fd_sc_mcu7t5v0__clkbuf_2
*I *1466:CLK I *D gf180mcu_fd_sc_mcu7t5v0__dffrnq_1
*I *1475:Z O *D gf180mcu_fd_sc_mcu7t5v0__clkbuf_8
*CAP
1 *1433:CLK 0.00027246
2 *1434:CLK 0
3 *1491:I 0
4 *1466:CLK 0.000524559
5 *1475:Z 0.000628514
6 *214:41 0.000599992
7 *214:26 0.000431486
8 *1433:CLK *1274:A1 3.74615e-05
9 *1466:CLK *380:I 0.000108755
10 *1466:CLK *1375:A3 4.49374e-05
11 *1466:CLK *1601:I 0.00126029
12 *1466:CLK *272:125 2.10565e-05
13 *1466:CLK *344:27 1.61847e-05
14 *214:26 *1375:A3 0.000159689
15 *214:41 *1375:A3 0.000173409
16 *214:41 *225:14 0.000514189
17 *214:41 *226:12 0.000520025
18 *1298:A1 *1466:CLK 0.000137785
19 *1301:A2 *1466:CLK 0.000128923
20 *1301:B1 *1433:CLK 0.000724106
21 *1301:B1 *214:41 0.000154443
22 *1407:C *1466:CLK 9.88736e-06
23 *1415:A2 *1466:CLK 9.09812e-05
24 *1433:D *1433:CLK 2.65763e-05
25 *1434:D *1433:CLK 1.91917e-06
26 *1434:D *214:41 4.13692e-05
27 *123:45 *1466:CLK 5.83289e-05
28 *123:52 *1466:CLK 2.11799e-05
29 *170:30 *214:26 6.14946e-05
30 *170:30 *214:41 7.76261e-05
31 *198:26 *1466:CLK 0.000526536
*RES
1 *1475:Z *1466:CLK 23.548 
2 *1475:Z *214:26 5.488 
3 *214:26 *1491:I 4.5 
4 *214:26 *214:41 12.724 
5 *214:41 *1434:CLK 4.5 
6 *214:41 *1433:CLK 6.932 
*END

*D_NET *215 0.00642957
*CONN
*I *1424:CLK I *D gf180mcu_fd_sc_mcu7t5v0__dffrnq_1
*I *1492:I I *D gf180mcu_fd_sc_mcu7t5v0__clkbuf_2
*I *1463:CLK I *D gf180mcu_fd_sc_mcu7t5v0__dffrnq_1
*I *1444:CLK I *D gf180mcu_fd_sc_mcu7t5v0__dffrnq_1
*I *1476:Z O *D gf180mcu_fd_sc_mcu7t5v0__clkbuf_8
*CAP
1 *1424:CLK 0.000608612
2 *1492:I 0.000316219
3 *1463:CLK 0
4 *1444:CLK 0.000932038
5 *1476:Z 4.45438e-05
6 *215:29 0.000316219
7 *215:10 0.00110338
8 *215:8 0.000824499
9 *1424:CLK *1393:S 0
10 *1424:CLK *339:10 3.33507e-05
11 *1444:CLK *358:I 0.000355657
12 *1444:CLK *1342:B 0.000135298
13 *1444:CLK *276:192 3.77916e-05
14 *1444:CLK *339:12 2.72007e-05
15 *1492:I *367:I 1.93526e-05
16 *1492:I *1393:S 5.14116e-06
17 *1492:I *243:79 5.73322e-07
18 *215:8 *1393:S 0.000366675
19 *215:10 *339:10 1.65377e-05
20 *215:10 *339:12 6.73066e-06
21 *419:I *1492:I 0
22 *1343:A2 *1444:CLK 0.000782338
23 *1344:B *1444:CLK 3.73215e-05
24 *1444:D *1444:CLK 7.11102e-06
25 *1463:D *1444:CLK 0.000303605
26 *1463:D *1492:I 2.9378e-06
27 *1474:I *1424:CLK 0
28 *1476:I *1492:I 2.12405e-05
29 *146:36 *1424:CLK 2.66831e-05
30 *146:36 *1444:CLK 7.69321e-05
31 *146:36 *215:10 2.15773e-05
*RES
1 *1476:Z *215:8 9.988 
2 *215:8 *215:10 0.836 
3 *215:10 *1444:CLK 16.372 
4 *215:10 *215:29 4.5 
5 *215:29 *1463:CLK 4.5 
6 *215:29 *1492:I 6.628 
7 *215:8 *1424:CLK 11.812 
*END

*D_NET *216 0.00615465
*CONN
*I *1467:CLK I *D gf180mcu_fd_sc_mcu7t5v0__dffrnq_1
*I *1427:CLK I *D gf180mcu_fd_sc_mcu7t5v0__dffsnq_1
*I *1447:CLK I *D gf180mcu_fd_sc_mcu7t5v0__dffrnq_1
*I *1486:I I *D gf180mcu_fd_sc_mcu7t5v0__clkbuf_2
*I *1477:Z O *D gf180mcu_fd_sc_mcu7t5v0__clkbuf_8
*CAP
1 *1467:CLK 0.000151507
2 *1427:CLK 0
3 *1447:CLK 0.000245724
4 *1486:I 0.000437039
5 *1477:Z 0.000161592
6 *216:21 0.000463051
7 *216:8 0.000664452
8 *1447:CLK *269:10 0.000321964
9 *1447:CLK *340:18 0.000225787
10 *1447:CLK *340:37 0.000141171
11 *1360:A2 *216:21 9.98266e-05
12 *1398:I1 *1467:CLK 0.0010373
13 *1398:S *1486:I 2.2901e-05
14 *1400:A1 *1486:I 0.000509844
15 *1400:A1 *216:8 0.000340332
16 *1427:D *1467:CLK 0.000904567
17 *1427:D *1486:I 2.96621e-05
18 *1445:D *1486:I 5.69622e-05
19 *94:37 *1486:I 1.34649e-05
20 *94:37 *216:8 1.99893e-05
21 *168:28 *216:21 0.000307515
*RES
1 *1477:Z *216:8 5.868 
2 *216:8 *1486:I 6.704 
3 *216:8 *216:21 10.9 
4 *216:21 *1447:CLK 6.932 
5 *216:21 *1427:CLK 4.5 
6 *1486:I *1467:CLK 11.964 
*END

*D_NET *217 0.00504441
*CONN
*I *1487:I I *D gf180mcu_fd_sc_mcu7t5v0__clkbuf_2
*I *1450:CLK I *D gf180mcu_fd_sc_mcu7t5v0__dffrnq_1
*I *1449:CLK I *D gf180mcu_fd_sc_mcu7t5v0__dffrnq_1
*I *1451:CLK I *D gf180mcu_fd_sc_mcu7t5v0__dffrnq_1
*I *1478:Z O *D gf180mcu_fd_sc_mcu7t5v0__clkbuf_8
*CAP
1 *1487:I 0.00027176
2 *1450:CLK 0
3 *1449:CLK 0.00043211
4 *1451:CLK 6.97816e-05
5 *1478:Z 0
6 *217:17 0.000327246
7 *217:4 0.000236678
8 *1449:CLK *1360:A1 5.02848e-05
9 *1449:CLK *1579:I 0.000140092
10 *1449:CLK *273:61 1.672e-05
11 *1449:CLK *281:29 0
12 *1451:CLK *247:24 0.000255235
13 *1451:CLK *273:61 1.5979e-05
14 *1487:I *391:I 5.80708e-06
15 *1487:I *1246:I 0.000105141
16 *1487:I *1579:I 0.000308746
17 *1487:I *1598:I 0.00030618
18 *1487:I *265:42 0.000144999
19 *217:17 *273:61 0.000146053
20 dac_p[3] *1487:I 0.000235347
21 dac_p[4] *1449:CLK 4.58352e-05
22 dac_p[4] *1487:I 0.000301608
23 dac_p[7] *1449:CLK 0.000794214
24 dac_p[7] *1451:CLK 0.000376901
25 dac_p[7] *217:17 0.000114204
26 *359:I *1487:I 0.000141916
27 *1291:A2 *1487:I 0.000103642
28 *1360:A2 *1487:I 1.90748e-05
29 *1360:B *1449:CLK 7.886e-05
*RES
1 *1478:Z *217:4 4.5 
2 *217:4 *1451:CLK 5.868 
3 *217:4 *217:17 1.672 
4 *217:17 *1449:CLK 6.704 
5 *217:17 *1450:CLK 4.5 
6 *1449:CLK *1487:I 21.724 
*END

*D_NET *218 0.00701501
*CONN
*I *1429:CLK I *D gf180mcu_fd_sc_mcu7t5v0__dffrnq_2
*I *1428:CLK I *D gf180mcu_fd_sc_mcu7t5v0__dffrnq_1
*I *1493:I I *D gf180mcu_fd_sc_mcu7t5v0__clkbuf_2
*I *1454:CLK I *D gf180mcu_fd_sc_mcu7t5v0__dffrnq_1
*I *1479:Z O *D gf180mcu_fd_sc_mcu7t5v0__clkbuf_8
*CAP
1 *1429:CLK 0
2 *1428:CLK 0.000417401
3 *1493:I 7.5886e-05
4 *1454:CLK 0.000178255
5 *1479:Z 0.00013633
6 *218:41 0.000466533
7 *218:8 0.000341339
8 *1428:CLK *1572:I 0.000185193
9 *1428:CLK *340:37 0.000988472
10 *1454:CLK *280:31 6.42152e-05
11 *1454:CLK *299:8 0.00028938
12 *1493:I *1265:I 0.000210547
13 *1493:I *1548:I 0.000882442
14 *1493:I *246:14 9.56956e-05
15 *1493:I *299:17 1.95806e-05
16 *218:8 *280:31 0.000110416
17 *422:I *1428:CLK 0
18 *1363:B *1454:CLK 6.84574e-06
19 *1363:B *1493:I 0.000415253
20 *1366:A2 *1454:CLK 0.000289629
21 *1366:A2 *218:8 0.000480265
22 *1366:A2 *218:41 0.000351361
23 *1401:A2 *1428:CLK 0
24 *1402:A2 *1428:CLK 8.39112e-05
25 *1402:A2 *218:41 7.83779e-05
26 *1428:D *1428:CLK 2.93993e-05
27 *1503:I *1454:CLK 6.08601e-05
28 *108:14 *218:41 0.000351361
29 *192:8 *1428:CLK 0.000222306
30 *192:8 *218:41 1.97747e-05
31 *208:19 *1428:CLK 0.000163982
*RES
1 *1479:Z *218:8 10.292 
2 *218:8 *1454:CLK 10.824 
3 *218:8 *1493:I 11.356 
4 *1479:Z *218:41 14.716 
5 *218:41 *1428:CLK 8.832 
6 *218:41 *1429:CLK 4.5 
*END

*D_NET *219 0.0114197
*CONN
*I *1437:CLK I *D gf180mcu_fd_sc_mcu7t5v0__dffrnq_1
*I *1494:I I *D gf180mcu_fd_sc_mcu7t5v0__clkbuf_2
*I *1436:CLK I *D gf180mcu_fd_sc_mcu7t5v0__dffrnq_1
*I *1445:CLK I *D gf180mcu_fd_sc_mcu7t5v0__dffrnq_1
*I *1446:CLK I *D gf180mcu_fd_sc_mcu7t5v0__dffrnq_1
*I *1480:Z O *D gf180mcu_fd_sc_mcu7t5v0__clkbuf_8
*CAP
1 *1437:CLK 3.24808e-05
2 *1494:I 0.000449435
3 *1436:CLK 0
4 *1445:CLK 0.00012085
5 *1446:CLK 0
6 *1480:Z 0.000385683
7 *219:18 0.00040189
8 *219:12 0.000300968
9 *219:10 0.000822565
10 *1437:CLK *1312:A2 0.000353934
11 *1437:CLK *277:63 0.000353934
12 *1445:CLK *1271:A1 0.000264194
13 *1445:CLK *290:151 0.000512535
14 *1494:I *1347:C 2.40842e-05
15 *1494:I *1467:RN 0
16 *1494:I *1592:I 0
17 *219:10 *1350:C 0.000638186
18 *219:10 *1353:C 0.000152198
19 *219:10 *241:62 0.000289932
20 *219:10 *243:36 4.60478e-05
21 *219:10 *243:67 4.45129e-06
22 *219:10 *277:63 0
23 *219:12 *1350:C 0.000223955
24 *219:18 *402:I 8.75225e-05
25 *219:18 *1271:A1 2.6126e-05
26 *219:18 *1304:A1 0.000361468
27 *219:18 *1350:C 0.000389149
28 *219:18 *276:46 5.28994e-05
29 *219:18 *340:18 0.000637928
30 *1347:B *219:10 0.00113897
31 *1436:D *1494:I 2.6126e-05
32 *1436:D *219:10 7.48754e-05
33 *1436:D *219:12 0.000250541
34 *1436:D *219:18 0.00193167
35 *1445:D *1445:CLK 0.000612758
36 *1445:D *219:18 0.000402958
37 *136:32 *1494:I 4.94368e-05
*RES
1 *1480:Z *219:10 13.864 
2 *219:10 *219:12 0.684 
3 *219:12 *219:18 10.732 
4 *219:18 *1446:CLK 4.5 
5 *219:18 *1445:CLK 6.704 
6 *219:12 *1436:CLK 9 
7 *219:10 *1494:I 11.204 
8 *1480:Z *1437:CLK 9.988 
*END

*D_NET *220 0.00667221
*CONN
*I *1495:I I *D gf180mcu_fd_sc_mcu7t5v0__clkbuf_2
*I *1416:CLK I *D gf180mcu_fd_sc_mcu7t5v0__dffrnq_1
*I *1435:CLK I *D gf180mcu_fd_sc_mcu7t5v0__dffrnq_1
*I *1417:CLK I *D gf180mcu_fd_sc_mcu7t5v0__dffrnq_1
*I *1481:Z O *D gf180mcu_fd_sc_mcu7t5v0__clkbuf_8
*CAP
1 *1495:I 0.000289854
2 *1416:CLK 8.8866e-05
3 *1435:CLK 0
4 *1417:CLK 0.000362159
5 *1481:Z 7.37532e-05
6 *220:17 0.000306514
7 *220:6 0.000363706
8 *1416:CLK *1386:S 9.99092e-05
9 *1416:CLK *269:65 0.000422015
10 *1416:CLK *289:14 0.000181456
11 *1495:I *1313:B 9.88736e-06
12 *1495:I *1327:A1 1.45054e-05
13 *220:6 *1436:RN 9.15861e-05
14 *220:6 *1437:RN 0.000423026
15 *220:17 *353:I 2.23783e-05
16 *220:17 *1386:S 0.000192309
17 *220:17 *1436:RN 1.58383e-05
18 *220:17 *241:62 2.32744e-05
19 *1303:A2 *1417:CLK 2.6126e-05
20 *1303:A2 *1495:I 5.39012e-05
21 *1306:A1 *1416:CLK 0.000259515
22 *1306:A1 *1417:CLK 0.000801221
23 *1306:A1 *220:6 8.55327e-05
24 *1306:A1 *220:17 0.000931076
25 *132:16 *1417:CLK 0.000801221
26 *132:16 *220:6 0.000732578
*RES
1 *1481:Z *220:6 6.552 
2 *220:6 *1417:CLK 6.704 
3 *220:6 *220:17 7.16 
4 *220:17 *1435:CLK 9 
5 *220:17 *1416:CLK 10.824 
6 *1417:CLK *1495:I 10.672 
*END

*D_NET *221 0.00704368
*CONN
*I *1496:I I *D gf180mcu_fd_sc_mcu7t5v0__clkbuf_2
*I *1440:CLK I *D gf180mcu_fd_sc_mcu7t5v0__dffrnq_1
*I *1439:CLK I *D gf180mcu_fd_sc_mcu7t5v0__dffrnq_1
*I *1438:CLK I *D gf180mcu_fd_sc_mcu7t5v0__dffrnq_1
*I *1482:Z O *D gf180mcu_fd_sc_mcu7t5v0__clkbuf_8
*CAP
1 *1496:I 0.0009814
2 *1440:CLK 0.000281842
3 *1439:CLK 0
4 *1438:CLK 0.00010074
5 *1482:Z 0.0009814
6 *221:13 0.000383271
7 *221:4 0.000202169
8 *1438:CLK *1437:RN 0.000221732
9 *1440:CLK *1437:RN 0.00036434
10 *1496:I *1314:A1 8.50647e-05
11 *1496:I *1387:S 0.000134635
12 *1496:I *1497:I 5.59457e-05
13 *1496:I *232:56 0
14 *1496:I *267:18 0.000465765
15 *1496:I *333:14 7.06111e-05
16 *1496:I *334:24 0.00013012
17 *221:13 *1437:RN 0.000151785
18 *424:I *1496:I 4.00797e-05
19 *1328:A2 *1438:CLK 1.91917e-06
20 *1328:A2 *1440:CLK 4.22731e-05
21 *1328:A2 *221:13 5.09868e-05
22 *1418:D *1496:I 0.00032464
23 *1438:D *1438:CLK 3.08902e-05
24 *1438:D *1496:I 4.39682e-05
25 *1439:D *1438:CLK 5.88975e-06
26 *1439:D *1496:I 0.000886752
27 *1440:D *1440:CLK 0
28 *1563:I *1496:I 2.23783e-05
29 *191:20 *1496:I 0.000983079
*RES
1 *1482:Z *221:4 4.5 
2 *221:4 *1438:CLK 5.792 
3 *221:4 *221:13 0.988 
4 *221:13 *1439:CLK 4.5 
5 *221:13 *1440:CLK 6.932 
6 *1482:Z *1496:I 28.184 
*END

*D_NET *222 0.00473281
*CONN
*I *1420:CLK I *D gf180mcu_fd_sc_mcu7t5v0__dffrnq_1
*I *1419:CLK I *D gf180mcu_fd_sc_mcu7t5v0__dffrnq_1
*I *1497:I I *D gf180mcu_fd_sc_mcu7t5v0__clkbuf_2
*I *1418:CLK I *D gf180mcu_fd_sc_mcu7t5v0__dffrnq_1
*I *1483:Z O *D gf180mcu_fd_sc_mcu7t5v0__clkbuf_8
*CAP
1 *1420:CLK 8.1803e-05
2 *1419:CLK 0
3 *1497:I 0.000206249
4 *1418:CLK 4.52367e-05
5 *1483:Z 0.000139086
6 *222:33 0.000195849
7 *222:18 0.000414145
8 *1418:CLK *1324:A1 0.000386421
9 *1497:I *392:I 3.1291e-05
10 *1497:I *334:24 2.63147e-05
11 *222:18 *1324:A1 5.1548e-05
12 *1324:B *1420:CLK 0.000483636
13 *1324:B *222:18 4.37559e-05
14 *1324:B *222:33 0.000350411
15 *1496:I *1497:I 5.59457e-05
16 *191:20 *1418:CLK 9.76829e-05
17 *191:20 *1420:CLK 0.000788891
18 *191:20 *222:18 0.000477255
19 *191:20 *222:33 0.00085729
*RES
1 *1483:Z *1418:CLK 9.988 
2 *1483:Z *222:18 5.792 
3 *222:18 *1497:I 14.64 
4 *222:18 *222:33 2.432 
5 *222:33 *1419:CLK 4.5 
6 *222:33 *1420:CLK 6.704 
*END

*D_NET *223 0.00868923
*CONN
*I *1464:CLK I *D gf180mcu_fd_sc_mcu7t5v0__dffrnq_1
*I *1452:CLK I *D gf180mcu_fd_sc_mcu7t5v0__dffrnq_1
*I *1453:CLK I *D gf180mcu_fd_sc_mcu7t5v0__dffrnq_1
*I *1465:CLK I *D gf180mcu_fd_sc_mcu7t5v0__dffrnq_1
*I *1498:I I *D gf180mcu_fd_sc_mcu7t5v0__clkbuf_2
*I *1484:Z O *D gf180mcu_fd_sc_mcu7t5v0__clkbuf_8
*CAP
1 *1464:CLK 0.000228467
2 *1452:CLK 0.00036163
3 *1453:CLK 3.67708e-05
4 *1465:CLK 0
5 *1498:I 0.000261201
6 *1484:Z 3.28034e-05
7 *223:36 0.000870245
8 *223:16 0.000298151
9 *223:12 0.000587815
10 *223:6 0.00034029
11 *1452:CLK *357:I 0.000146225
12 *1452:CLK *1256:I 2.96621e-05
13 *1452:CLK *273:10 4.02265e-05
14 *1464:CLK *305:8 0.00106688
15 *1464:CLK *305:12 3.94705e-05
16 *1498:I *1288:B 8.25154e-05
17 *1498:I *1465:D 4.58601e-06
18 *1498:I *1571:I 7.45328e-07
19 *1498:I *265:14 0
20 *223:12 *1288:B 0.000179145
21 *223:12 *305:12 4.21224e-05
22 *223:16 *1288:B 0.000357798
23 *223:36 *1256:I 0.000145328
24 *223:36 *1465:D 4.58601e-06
25 *223:36 *1551:I 0.000531217
26 *223:36 *265:14 9.23308e-06
27 *223:36 *305:12 0.000658575
28 *1280:A3 *223:12 0.000199473
29 *1280:A3 *223:16 0.000349983
30 *1383:A1 *1464:CLK 0.000660442
31 *1383:A1 *223:12 0.000211477
32 *1461:D *1464:CLK 0.000349092
33 *1461:D *223:12 0.000379283
34 *1503:I *1452:CLK 0.000114088
35 *1503:I *223:36 3.83835e-06
36 *104:12 *1452:CLK 2.47206e-05
37 *165:6 *223:36 4.11456e-05
*RES
1 *1484:Z *223:6 4.728 
2 *223:6 *223:12 6.324 
3 *223:12 *223:16 5.488 
4 *223:16 *1498:I 6.248 
5 *223:16 *1465:CLK 4.5 
6 *223:12 *223:36 8.832 
7 *223:36 *1453:CLK 4.728 
8 *223:36 *1452:CLK 6.932 
9 *223:6 *1464:CLK 8.68 
*END

*D_NET *224 0.00547009
*CONN
*I *1430:CLK I *D gf180mcu_fd_sc_mcu7t5v0__dffsnq_1
*I *1462:CLK I *D gf180mcu_fd_sc_mcu7t5v0__dffrnq_1
*I *1499:I I *D gf180mcu_fd_sc_mcu7t5v0__clkbuf_2
*I *1455:CLK I *D gf180mcu_fd_sc_mcu7t5v0__dffrnq_1
*I *1485:Z O *D gf180mcu_fd_sc_mcu7t5v0__clkbuf_8
*CAP
1 *1430:CLK 0.00109727
2 *1462:CLK 0
3 *1499:I 0.000189155
4 *1455:CLK 0
5 *1485:Z 0.0012719
6 *224:19 0.000381783
7 *224:12 0.00036726
8 *1430:CLK *1403:A1 6.48034e-06
9 *1430:CLK *1407:B2 2.69756e-05
10 *1430:CLK *1509:I 7.45328e-07
11 *1430:CLK *1525:I 4.97712e-06
12 *1430:CLK *231:22 0
13 *1430:CLK *276:20 1.81267e-05
14 *1430:CLK *282:29 5.70624e-05
15 *1430:CLK *287:10 0.00024426
16 *1499:I *248:65 0.000208338
17 *224:12 *231:16 0.000337397
18 *224:12 *231:22 3.08902e-05
19 *1292:B1 *1430:CLK 2.0385e-05
20 *1369:A2 *1499:I 2.99319e-05
21 *1369:A2 *224:12 0.000101154
22 *1376:A1 *224:19 0
23 *1377:A3 *224:19 8.39112e-05
24 *1407:A1 *224:12 0.000651208
25 *1407:B1 *1430:CLK 0
26 *1430:D *1430:CLK 0
27 *1455:D *1499:I 6.97314e-05
28 *1455:D *224:19 7.94847e-06
29 *1462:D *224:19 9.88736e-06
30 *1469:I *1430:CLK 0
31 *4:30 *224:12 0.000109454
32 *4:30 *224:19 1.3255e-05
33 *196:10 *1430:CLK 5.75752e-06
34 *208:385 *224:12 0.000104131
35 *208:385 *224:19 2.07222e-05
*RES
1 *1485:Z *224:12 16.236 
2 *224:12 *1455:CLK 4.5 
3 *224:12 *224:19 1.14 
4 *224:19 *1499:I 14.944 
5 *224:19 *1462:CLK 4.5 
6 *1485:Z *1430:CLK 14.928 
*END

*D_NET *225 0.0201428
*CONN
*I *1251:I I *D gf180mcu_fd_sc_mcu7t5v0__clkinv_1
*I *1277:A1 I *D gf180mcu_fd_sc_mcu7t5v0__nand3_1
*I *1411:A1 I *D gf180mcu_fd_sc_mcu7t5v0__xor2_1
*I *1410:A2 I *D gf180mcu_fd_sc_mcu7t5v0__nand4_1
*I *1281:A1 I *D gf180mcu_fd_sc_mcu7t5v0__nand4_1
*I *1280:A1 I *D gf180mcu_fd_sc_mcu7t5v0__nand3_1
*I *1431:Q O *D gf180mcu_fd_sc_mcu7t5v0__dffrnq_1
*CAP
1 *1251:I 0.000489656
2 *1277:A1 7.28602e-05
3 *1411:A1 0
4 *1410:A2 0.00152116
5 *1281:A1 0.000209866
6 *1280:A1 0.000984528
7 *1431:Q 0.000562775
8 *225:26 0.001721
9 *225:20 0.00230555
10 *225:14 0.00100398
11 *225:8 0.000892181
12 *1251:I *1274:A1 3.49701e-05
13 *1251:I *1277:A3 0.000400782
14 *1251:I *1352:A1 0.000104509
15 *1251:I *1433:RN 0.000182263
16 *1251:I *1569:I 5.72245e-06
17 *1251:I *325:12 0.000599552
18 *1251:I *345:40 0
19 *1277:A1 *1277:A2 0.000108609
20 *1277:A1 *296:116 1.78155e-05
21 *1280:A1 *1288:B 9.04915e-06
22 *1280:A1 *1381:A1 7.88878e-05
23 *1280:A1 *1461:RN 8.04789e-05
24 *1280:A1 *1571:I 0.000156831
25 *1280:A1 *239:97 0.000294158
26 *1280:A1 *288:32 0.00114111
27 *1280:A1 *288:34 0.000264709
28 *1281:A1 *1465:RN 1.4222e-05
29 *1410:A2 *1408:A2 0.00011382
30 *1410:A2 *1529:I 7.32209e-05
31 *225:8 *1274:A1 0.000161687
32 *225:8 *228:16 0.000428085
33 *225:14 *1277:A2 3.17618e-05
34 *225:14 *1411:A2 0.000190698
35 *225:14 *226:12 0.000652098
36 *225:14 *296:116 0
37 *225:20 *1408:A2 1.21417e-05
38 *225:20 *344:56 2.02486e-05
39 *225:20 *344:60 7.90878e-06
40 *225:26 *298:86 0.000393275
41 *381:I *225:14 7.64965e-05
42 *414:I *1280:A1 0.000142942
43 *414:I *1281:A1 8.26848e-05
44 *443:I *1410:A2 8.53118e-06
45 *1276:A1 *1410:A2 7.48754e-05
46 *1280:A2 *1280:A1 0.000973459
47 *1283:A1 *225:8 0.000359647
48 *1283:A1 *225:14 1.31444e-05
49 *1283:A2 *1251:I 0
50 *1288:A2 *1280:A1 0.000246212
51 *1382:A1 *1281:A1 1.20137e-05
52 *1415:A1 *1251:I 0
53 *1460:CLK *1280:A1 1.76386e-05
54 *1464:D *1281:A1 0.000124179
55 *1464:D *225:8 1.97747e-05
56 *1464:D *225:14 0.000334621
57 *1464:D *225:20 2.13417e-05
58 *1488:I *1410:A2 7.98484e-05
59 *99:12 *1251:I 0.000763301
60 *100:54 *1281:A1 0.000182094
61 *116:20 *1281:A1 0.000122838
62 *170:30 *225:8 4.17148e-05
63 *191:34 *225:26 0.000556622
64 *198:26 *225:14 2.61012e-05
65 *211:52 *225:14 0
66 *211:52 *225:20 6.35905e-06
67 *214:41 *225:14 0.000514189
*RES
1 *1431:Q *225:8 10.596 
2 *225:8 *225:14 6.916 
3 *225:14 *225:20 5.56671 
4 *225:20 *225:26 10.7682 
5 *225:26 *1280:A1 22.3947 
6 *225:26 *1281:A1 15.0933 
7 *225:20 *1410:A2 18.7413 
8 *225:14 *1411:A1 9 
9 *225:8 *1277:A1 9.684 
10 *1431:Q *1251:I 23.092 
*END

*D_NET *226 0.0129484
*CONN
*I *1277:A2 I *D gf180mcu_fd_sc_mcu7t5v0__nand3_1
*I *1279:A2 I *D gf180mcu_fd_sc_mcu7t5v0__nor2_1
*I *1252:I I *D gf180mcu_fd_sc_mcu7t5v0__clkinv_1
*I *1411:A2 I *D gf180mcu_fd_sc_mcu7t5v0__xor2_1
*I *1432:Q O *D gf180mcu_fd_sc_mcu7t5v0__dffrnq_1
*CAP
1 *1277:A2 0.000122534
2 *1279:A2 0.000157103
3 *1252:I 0.00147363
4 *1411:A2 4.8051e-05
5 *1432:Q 0
6 *226:27 0.00201073
7 *226:12 0.00108771
8 *226:6 0.000782199
9 *1252:I *1381:A2 7.23781e-06
10 *1252:I *1457:SETN 0.000251566
11 *1252:I *1526:I 0.000448922
12 *1252:I *1528:I 4.31847e-06
13 *1252:I *1552:I 0.000482558
14 *1252:I *275:10 9.32751e-05
15 *1252:I *296:10 0
16 *1252:I *309:23 0.00084012
17 *1277:A2 *296:116 0
18 dac_n[9] *1252:I 0
19 *398:I *1252:I 3.33385e-05
20 *415:I *1279:A2 5.8421e-05
21 *415:I *1411:A2 3.4686e-05
22 *415:I *226:12 0.000281441
23 *1275:A1 *1252:I 0.00019902
24 *1276:A1 *1252:I 0
25 *1276:A2 *1252:I 9.45938e-05
26 *1277:A1 *1277:A2 0.000108609
27 *1282:A2 *1252:I 7.8279e-05
28 *1282:A2 *1279:A2 4.76792e-05
29 *1297:A1 *1252:I 0.000123923
30 *1297:A1 *1279:A2 0.000145596
31 *1297:A1 *226:27 0.000123252
32 *1297:A2 *1252:I 3.01983e-05
33 *1299:B *226:12 6.55539e-05
34 *1299:B *226:27 0.00129545
35 *1412:A2 *1252:I 0.00046952
36 *1412:A2 *1279:A2 0.000293635
37 *4:30 *1252:I 0
38 *99:12 *1279:A2 5.47903e-05
39 *99:14 *1279:A2 2.47642e-05
40 *101:16 *226:12 0
41 *112:17 *1252:I 0.000100689
42 *123:65 *226:27 8.04664e-05
43 *214:41 *226:12 0.000520025
44 *225:14 *1277:A2 3.17618e-05
45 *225:14 *1411:A2 0.000190698
46 *225:14 *226:12 0.000652098
*RES
1 *1432:Q *226:6 9 
2 *226:6 *226:12 5.852 
3 *226:12 *1411:A2 9.532 
4 *226:12 *226:27 12.572 
5 *226:27 *1252:I 21.54 
6 *226:27 *1279:A2 19.824 
7 *226:6 *1277:A2 9.988 
*END

*D_NET *227 0.00529564
*CONN
*I *1254:I I *D gf180mcu_fd_sc_mcu7t5v0__clkinv_1
*I *1274:A2 I *D gf180mcu_fd_sc_mcu7t5v0__nor2_2
*I *1277:A3 I *D gf180mcu_fd_sc_mcu7t5v0__nand3_1
*I *1433:Q O *D gf180mcu_fd_sc_mcu7t5v0__dffrnq_1
*CAP
1 *1254:I 0
2 *1274:A2 0.00020207
3 *1277:A3 0.000765609
4 *1433:Q 0
5 *227:31 0.000535327
6 *227:4 0.00109887
7 *1277:A3 *354:I 1.15966e-05
8 *1277:A3 *1352:A1 5.63027e-05
9 *1277:A3 *1433:RN 1.97747e-05
10 *1277:A3 *1434:RN 0.000123319
11 *1277:A3 *1463:RN 0.000247083
12 *1277:A3 *272:86 3.40983e-06
13 *1277:A3 *272:97 1.49066e-06
14 *1277:A3 *272:186 3.42922e-06
15 *227:31 *354:I 8.06713e-05
16 *360:I *1274:A2 0.000398867
17 *360:I *227:31 0.000265991
18 *1251:I *1277:A3 0.000400782
19 *1282:A2 *1274:A2 0.000642033
20 *1289:A2 *1274:A2 0.000331276
21 *1415:A1 *1277:A3 2.65201e-05
22 *99:12 *1274:A2 0
23 *99:12 *1277:A3 4.93027e-05
24 *99:12 *227:31 0
25 *120:81 *1274:A2 3.19219e-05
*RES
1 *1433:Q *227:4 4.5 
2 *227:4 *1277:A3 19.124 
3 *227:4 *227:31 7.084 
4 *227:31 *1274:A2 12.116 
5 *227:31 *1254:I 9 
*END

*D_NET *228 0.013529
*CONN
*I *1274:A1 I *D gf180mcu_fd_sc_mcu7t5v0__nor2_2
*I *1278:A1 I *D gf180mcu_fd_sc_mcu7t5v0__nor3_1
*I *1285:A1 I *D gf180mcu_fd_sc_mcu7t5v0__oai21_1
*I *1253:I I *D gf180mcu_fd_sc_mcu7t5v0__clkinv_1
*I *1434:Q O *D gf180mcu_fd_sc_mcu7t5v0__dffrnq_1
*CAP
1 *1274:A1 0.000621718
2 *1278:A1 0.000319732
3 *1285:A1 2.20441e-05
4 *1253:I 7.09516e-05
5 *1434:Q 0.000176868
6 *228:24 0.000138953
7 *228:16 0.000619161
8 *228:10 0.00105206
9 *1253:I *274:108 1.40605e-05
10 *1274:A1 *325:12 0.000128884
11 *1278:A1 *1601:I 0.000636609
12 *228:10 *1434:RN 0.000301135
13 *228:10 *296:116 0.000868877
14 *228:16 *344:8 4.14296e-05
15 *228:24 *350:I 0.000119798
16 *382:I *1274:A1 3.05769e-06
17 *1251:I *1274:A1 3.49701e-05
18 *1278:A2 *1278:A1 2.52855e-05
19 *1283:A1 *1274:A1 0.000123066
20 *1286:A2 *1253:I 7.47363e-05
21 *1286:A2 *1285:A1 7.3227e-05
22 *1301:B1 *1274:A1 0.000119732
23 *1407:C *1278:A1 1.12388e-05
24 *1415:A1 *1274:A1 0.000494489
25 *1415:A1 *1278:A1 0.00084679
26 *1415:A1 *228:16 0.000963087
27 *1433:D *1274:A1 0.000193384
28 *1433:CLK *1274:A1 3.74615e-05
29 *1460:D *1274:A1 8.14359e-05
30 *44:10 *1278:A1 3.08902e-05
31 *99:12 *1274:A1 0.000149507
32 *101:16 *1253:I 4.05425e-05
33 *101:16 *1285:A1 8.19174e-06
34 *101:16 *228:16 0.000756468
35 *101:16 *228:24 0.000125479
36 *113:10 *1278:A1 0.00181982
37 *113:10 *228:24 0.000257276
38 *113:16 *1278:A1 0.000314588
39 *170:30 *228:10 8.30371e-05
40 *170:30 *228:16 0.000938825
41 *170:30 *228:24 0.000132099
42 *170:55 *228:10 6.82719e-05
43 *225:8 *1274:A1 0.000161687
44 *225:8 *228:16 0.000428085
*RES
1 *1434:Q *228:10 15.856 
2 *228:10 *228:16 5.396 
3 *228:16 *228:24 10.064 
4 *228:24 *1253:I 5.032 
5 *228:24 *1285:A1 4.728 
6 *228:16 *1278:A1 19.884 
7 *228:10 *1274:A1 19.2 
*END

*D_NET *229 0.0347396
*CONN
*I *441:I I *D gf180mcu_fd_sc_mcu7t5v0__antenna
*I *1536:I I *D gf180mcu_fd_sc_mcu7t5v0__dlyb_1
*I *1371:A1 I *D gf180mcu_fd_sc_mcu7t5v0__aoi211_2
*I *394:I I *D gf180mcu_fd_sc_mcu7t5v0__antenna
*I *438:I I *D gf180mcu_fd_sc_mcu7t5v0__antenna
*I *1537:I I *D gf180mcu_fd_sc_mcu7t5v0__dlyb_1
*I *439:I I *D gf180mcu_fd_sc_mcu7t5v0__antenna
*I *1539:Z O *D gf180mcu_fd_sc_mcu7t5v0__dlyb_1
*CAP
1 *441:I 0.0034079
2 *1536:I 0
3 *1371:A1 0.00010266
4 *394:I 0
5 *438:I 9.82854e-05
6 *1537:I 0.00144968
7 *439:I 0
8 *1539:Z 0.00106719
9 *229:94 0.0035272
10 *229:83 0.000296177
11 *229:72 0.000473538
12 *229:51 0.00145927
13 *229:22 0.00155522
14 *441:I *433:I 3.68998e-05
15 *441:I *1530:I 0.000146798
16 *441:I *1587:I 0
17 *441:I *256:10 1.53942e-05
18 *441:I *260:12 0.0001561
19 *441:I *276:192 8.22473e-05
20 *441:I *284:12 0.00154438
21 *441:I *285:27 0
22 *441:I *327:53 0
23 *1371:A1 *372:I 0.000184948
24 *1371:A1 *312:14 0.000756821
25 *1537:I *1271:A1 0.000441248
26 *1537:I *1445:RN 0.000490988
27 *1537:I *1459:SETN 0.00143994
28 *1537:I *241:62 0.000774436
29 *1537:I *243:21 3.1146e-05
30 *1537:I *328:16 0.000475066
31 *229:22 *403:I 4.90714e-05
32 *229:22 *239:41 7.21833e-05
33 *229:22 *265:42 0.0001216
34 *229:22 *281:35 6.50663e-05
35 *229:22 *281:43 2.22758e-05
36 *229:22 *296:46 2.63438e-05
37 *229:51 *1337:A1 0.000200277
38 *229:51 *1353:A1 0.00010294
39 *229:51 *290:61 6.03838e-05
40 *229:51 *291:44 3.72664e-06
41 *229:72 *1337:A1 0.000108939
42 *229:72 *312:14 0.00048835
43 *229:83 *276:192 4.02968e-05
44 *229:83 *312:14 2.96621e-05
45 *229:94 *276:192 0.000135502
46 dout[5] *441:I 0
47 samp_top *229:22 0
48 *397:I *441:I 0.000261449
49 *1313:A2 *229:51 0.000682733
50 *1329:A1 *229:51 0.00117778
51 *1333:A2 *441:I 0.000838339
52 *1335:A2 *441:I 0
53 *1343:A2 *441:I 0.000716971
54 *1343:A2 *229:72 0
55 *1343:A2 *229:83 0.000206341
56 *1343:A2 *229:94 0.000589524
57 *1347:B *1537:I 4.17433e-06
58 *1351:A2 *229:22 0.000585838
59 *1354:A2 *229:22 0.000608502
60 *1357:B *229:22 0.00372942
61 *1359:B *229:51 0.000889984
62 *1366:A2 *438:I 0.000145096
63 *1366:A2 *229:51 2.96621e-05
64 *1366:A2 *229:72 0.000161681
65 *1421:D *441:I 0.000312109
66 *1422:D *441:I 7.5318e-06
67 *1446:D *1537:I 0.000136128
68 *1446:D *229:22 3.73535e-05
69 *1480:I *229:51 0
70 *1520:I *229:51 0.000909817
71 *1562:I *1371:A1 5.31007e-05
72 *1562:I *229:72 6.57407e-05
73 *97:60 *229:51 5.77284e-05
74 *108:43 *438:I 0.000162177
75 *118:14 *229:72 0
76 *153:6 *229:51 0.000188259
77 *153:6 *229:72 4.10312e-05
78 *159:12 *229:72 0
79 *159:41 *1371:A1 7.83779e-05
80 *159:43 *1371:A1 0.000325296
81 *166:26 *229:22 3.54713e-05
82 *170:30 *229:51 7.91859e-05
83 *172:22 *229:72 4.32237e-05
84 *177:24 *438:I 1.94705e-05
85 *191:34 *441:I 1.9953e-05
86 *208:11 *229:72 0
87 *208:11 *229:83 0
*RES
1 *1539:Z *229:22 33.4115 
2 *229:22 *439:I 9 
3 *229:22 *1537:I 16.904 
4 *1537:I *229:51 15.368 
5 *229:51 *438:I 14.488 
6 *229:51 *229:72 12.724 
7 *229:72 *394:I 4.5 
8 *229:72 *229:83 5.26 
9 *229:83 *1371:A1 11.204 
10 *229:83 *229:94 1.596 
11 *229:94 *1536:I 9 
12 *229:94 *441:I 33.092 
*END

*D_NET *230 0.0283675
*CONN
*I *1564:I I *D gf180mcu_fd_sc_mcu7t5v0__buf_2
*I *447:I I *D gf180mcu_fd_sc_mcu7t5v0__antenna
*I *353:I I *D gf180mcu_fd_sc_mcu7t5v0__antenna
*I *1263:ZN O *D gf180mcu_fd_sc_mcu7t5v0__clkinv_1
*CAP
1 *1564:I 0.000777938
2 *447:I 0.000201655
3 *353:I 0.00140878
4 *1263:ZN 0
5 *230:41 0.00373061
6 *230:4 0.0041598
7 *353:I *404:I 0.000208956
8 *353:I *1303:B 4.58243e-05
9 *353:I *1316:A2 0.000207864
10 *353:I *1386:S 0.00031512
11 *353:I *1436:RN 0
12 *353:I *1468:I 4.59004e-05
13 *353:I *243:36 7.32779e-05
14 *353:I *277:63 2.32267e-05
15 *353:I *289:14 0
16 *353:I *291:44 6.31406e-05
17 *353:I *328:10 3.17618e-05
18 *353:I *328:43 0.000236492
19 *447:I *273:61 0.000360235
20 *1564:I *349:I 1.78482e-05
21 *1564:I *1265:I 0
22 *1564:I *1269:I 0.000209394
23 *1564:I *1366:A1 4.36713e-05
24 *1564:I *1367:A2 0.0021233
25 *1564:I *1454:RN 4.66761e-05
26 *1564:I *1566:I 0.000411178
27 *1564:I *1598:I 0.000379449
28 *1564:I *235:22 0.000205818
29 *1564:I *247:24 0.00013343
30 *1564:I *249:12 0.000307983
31 *1564:I *273:61 0.000755121
32 *1564:I *304:12 4.45507e-05
33 *1564:I *304:14 0.000176403
34 *230:41 *1258:I 2.28332e-05
35 *230:41 *1265:I 0
36 *230:41 *1270:A1 2.97126e-05
37 *230:41 *1270:A2 0
38 *230:41 *1312:A2 0.000699946
39 *230:41 *1312:A3 5.94067e-05
40 *230:41 *1349:A1 1.44706e-05
41 *230:41 *1356:A1 7.83779e-05
42 *230:41 *1399:B1 4.81113e-05
43 *230:41 *1572:I 0.000450132
44 *230:41 *243:36 2.9378e-06
45 *230:41 *243:67 0.00116937
46 *230:41 *272:59 2.32427e-05
47 *230:41 *277:18 0.000358923
48 dac_n[2] *1564:I 0.000251397
49 dac_p[1] *447:I 0.000630754
50 dac_p[5] *447:I 0.000109322
51 dac_p[5] *230:41 0.000182572
52 dac_p[7] *1564:I 0.000143192
53 dac_p[8] *1564:I 0.00053953
54 *1306:A1 *353:I 0.000475698
55 *1311:A2 *230:41 0.00018673
56 *1312:A1 *230:41 0.000150709
57 *1325:A1 *230:41 3.89037e-05
58 *1328:B *230:41 0
59 *1357:B *230:41 0.000333954
60 *1359:B *230:41 0.000489657
61 *1366:A2 *1564:I 0.000157004
62 *1372:B *447:I 0.000353088
63 *1372:B *1564:I 0.0010009
64 *1400:A2 *230:41 3.24017e-05
65 *1400:B2 *230:41 0
66 *1435:D *353:I 9.59587e-06
67 *1450:D *447:I 0.000142801
68 *1451:D *1564:I 2.01055e-05
69 *1478:I *230:41 0.000237499
70 *1503:I *230:41 6.04692e-05
71 *94:37 *230:41 0.000613104
72 *94:54 *230:41 0.00112898
73 *95:16 *230:41 0
74 *187:24 *353:I 0
75 *206:22 *230:41 0
76 *208:21 *230:41 0.000181565
77 *208:23 *230:41 0.000131806
78 *208:69 *230:41 9.43622e-05
79 *208:85 *230:41 0.000478215
80 *208:123 *230:41 0.000467951
81 *220:17 *353:I 2.23783e-05
*RES
1 *1263:ZN *230:4 4.5 
2 *230:4 *353:I 23.304 
3 *230:4 *230:41 42.7 
4 *230:41 *447:I 16.236 
5 *230:41 *1564:I 27.104 
*END

*D_NET *231 0.0184783
*CONN
*I *1375:A2 I *D gf180mcu_fd_sc_mcu7t5v0__nor3_1
*I *1305:A1 I *D gf180mcu_fd_sc_mcu7t5v0__oai21_1
*I *1292:A1 I *D gf180mcu_fd_sc_mcu7t5v0__oai22_4
*I *1403:A1 I *D gf180mcu_fd_sc_mcu7t5v0__oai211_1
*I *1399:B1 I *D gf180mcu_fd_sc_mcu7t5v0__oai22_4
*I *1542:Z O *D gf180mcu_fd_sc_mcu7t5v0__buf_2
*CAP
1 *1375:A2 0.000239912
2 *1305:A1 0.00017586
3 *1292:A1 0.000134365
4 *1403:A1 9.27032e-05
5 *1399:B1 0.00207388
6 *1542:Z 0.000246702
7 *231:50 0.000468271
8 *231:22 0.00247779
9 *231:16 0.000887444
10 *231:10 0.000904805
11 *1292:A1 *343:12 0.000483787
12 *1305:A1 *348:I 0.000390032
13 *1375:A2 *1273:A1 0.000132439
14 *1375:A2 *1375:A1 0.000110886
15 *1375:A2 *1375:A3 0.000192577
16 *1375:A2 *1408:A2 0.000189892
17 *1375:A2 *1601:I 0.000830347
18 *1403:A1 *1407:B2 2.49331e-05
19 *1403:A1 *276:20 9.85317e-05
20 *231:10 *380:I 0.000201312
21 *231:10 *239:47 2.81554e-06
22 *231:10 *239:97 0.000238584
23 *231:16 *1273:A1 0.00116878
24 *231:16 *1601:I 0.000350475
25 *231:22 *1273:A1 0.000271822
26 *231:22 *1292:B2 0.000194455
27 *231:22 *1376:A2 0.000296996
28 *231:22 *1515:I 1.97747e-05
29 *231:22 *276:20 0.000190286
30 *231:22 *343:27 1.3493e-05
31 *231:50 *348:I 0.000215472
32 *427:I *231:16 1.49813e-05
33 *1296:A2 *1375:A2 5.72932e-05
34 *1296:A2 *231:16 0.000305929
35 *1296:A3 *231:10 0
36 *1357:B *1399:B1 9.78861e-05
37 *1372:A2 *231:50 0.000409302
38 *1374:B2 *1305:A1 0.000673659
39 *1374:B2 *231:50 0.00111724
40 *1407:A1 *231:50 5.1647e-06
41 *1408:A3 *1375:A2 0.000192577
42 *1412:B1 *1375:A2 3.50073e-05
43 *1430:CLK *1403:A1 6.48034e-06
44 *1430:CLK *231:22 0
45 *1466:D *1375:A2 0.000321478
46 *1469:I *1292:A1 2.22657e-05
47 *1488:I *1375:A2 0.000162839
48 *1501:I *1305:A1 0.000167205
49 *4:30 *231:16 1.31916e-06
50 *4:30 *231:22 9.33001e-05
51 *123:16 *231:22 0.000538974
52 *124:16 *231:10 0.000215371
53 *208:15 *1403:A1 1.59563e-05
54 *208:15 *231:22 1.62509e-05
55 *208:371 *231:22 0
56 *208:397 *231:16 0.00027203
57 *224:12 *231:16 0.000337397
58 *224:12 *231:22 3.08902e-05
59 *230:41 *1399:B1 4.81113e-05
*RES
1 *1542:Z *231:10 15.704 
2 *231:10 *231:16 5.548 
3 *231:16 *231:22 7.996 
4 *231:22 *1399:B1 24.916 
5 *231:22 *1403:A1 9.608 
6 *231:16 *231:50 7.616 
7 *231:50 *1292:A1 10.292 
8 *231:50 *1305:A1 11.66 
9 *231:10 *1375:A2 8.832 
*END

*D_NET *232 0.0114723
*CONN
*I *1385:S I *D gf180mcu_fd_sc_mcu7t5v0__mux2_2
*I *1386:S I *D gf180mcu_fd_sc_mcu7t5v0__mux2_2
*I *1389:S I *D gf180mcu_fd_sc_mcu7t5v0__mux2_2
*I *1388:S I *D gf180mcu_fd_sc_mcu7t5v0__mux2_2
*I *1387:S I *D gf180mcu_fd_sc_mcu7t5v0__mux2_2
*I *1543:Z O *D gf180mcu_fd_sc_mcu7t5v0__buf_2
*CAP
1 *1385:S 0
2 *1386:S 0.000531091
3 *1389:S 0
4 *1388:S 0
5 *1387:S 0.00085499
6 *1543:Z 0.000339426
7 *232:56 0.000903295
8 *232:18 0.000666098
9 *232:16 0.000522737
10 *1386:S *405:I 0.000384129
11 *1386:S *1314:A1 5.70683e-05
12 *1386:S *1386:I0 2.62033e-05
13 *1386:S *241:62 0.000294247
14 *1386:S *274:159 0
15 *1386:S *289:14 0
16 *1387:S *392:I 6.54978e-05
17 *1387:S *1388:I1 0.000422525
18 *1387:S *1584:I 0.000145096
19 *1387:S *274:159 5.67749e-05
20 *232:16 *1530:I 0.00235963
21 *232:16 *1585:I 2.28332e-05
22 *232:16 *255:10 4.56663e-06
23 *232:16 *285:51 0.000576885
24 *232:18 *1530:I 0.000503207
25 *232:18 *1584:I 2.96621e-05
26 *232:18 *285:51 0.000207056
27 *232:56 *404:I 0.000286009
28 *232:56 *405:I 8.70294e-07
29 *232:56 *1314:A1 8.24926e-05
30 *232:56 *1385:I0 4.18603e-05
31 *232:56 *274:159 7.85062e-05
32 dout[3] *232:18 6.88266e-05
33 dout[4] *232:16 0.000256044
34 dout[5] *232:16 0.000697508
35 *353:I *1386:S 0.00031512
36 *424:I *232:56 0.000227011
37 *1306:A1 *1386:S 1.81333e-05
38 *1416:CLK *1386:S 9.99092e-05
39 *1496:I *1387:S 0.000134635
40 *1496:I *232:56 0
41 *220:17 *1386:S 0.000192309
*RES
1 *1543:Z *232:16 20.34 
2 *232:16 *232:18 2.204 
3 *232:18 *1387:S 17.452 
4 *232:18 *1388:S 4.5 
5 *232:16 *1389:S 4.5 
6 *1387:S *232:56 16.616 
7 *232:56 *1386:S 18.136 
8 *232:56 *1385:S 4.5 
*END

*D_NET *233 0.0126083
*CONN
*I *1565:I I *D gf180mcu_fd_sc_mcu7t5v0__buf_2
*I *1264:ZN O *D gf180mcu_fd_sc_mcu7t5v0__clkinv_1
*CAP
1 *1565:I 0
2 *1264:ZN 0.00363035
3 *233:22 0.00363035
4 *233:22 *1374:A1 4.89071e-05
5 *233:22 *1570:I 0.000117329
6 *233:22 *280:31 0.00011588
7 *233:22 *290:129 0.000393129
8 *233:22 *292:47 0.000843053
9 *233:22 *298:14 0.00262797
10 *1363:B *233:22 8.75225e-05
11 *1374:B1 *233:22 0
12 *1396:A1 *233:22 0.00068985
13 *108:14 *233:22 2.25679e-05
14 *206:14 *233:22 0.000286276
15 *206:22 *233:22 0.000115175
*RES
1 *1264:ZN *233:22 48.1129 
2 *233:22 *1565:I 9 
*END

*D_NET *234 0.00846819
*CONN
*I *1566:I I *D gf180mcu_fd_sc_mcu7t5v0__buf_2
*I *1265:ZN O *D gf180mcu_fd_sc_mcu7t5v0__clkinv_1
*CAP
1 *1566:I 0.00076527
2 *1265:ZN 0.00076527
3 *1566:I *1367:A1 0.0026332
4 *1566:I *1367:A2 0.00221348
5 *1566:I *235:22 0.000234268
6 *1566:I *247:24 0.000121885
7 dac_n[4] *1566:I 0.000137243
8 dac_n[5] *1566:I 3.48666e-05
9 dac_n[6] *1566:I 0
10 dac_p[8] *1566:I 0.00053953
11 dac_p[9] *1566:I 0.000379274
12 *1396:A1 *1566:I 0.000222834
13 *1564:I *1566:I 0.000411178
14 *210:23 *1566:I 9.88736e-06
*RES
1 *1265:ZN *1566:I 22.148 
*END

*D_NET *235 0.0102079
*CONN
*I *1567:I I *D gf180mcu_fd_sc_mcu7t5v0__buf_2
*I *1266:ZN O *D gf180mcu_fd_sc_mcu7t5v0__clkinv_1
*CAP
1 *1567:I 0
2 *1266:ZN 0.0028405
3 *235:22 0.0028405
4 *235:22 *1265:I 5.44885e-05
5 *235:22 *1266:I 8.75225e-05
6 *235:22 *1269:I 0.000482488
7 *235:22 *1367:A1 0.00020583
8 *235:22 *1367:A2 8.02751e-06
9 *235:22 *1538:I 0.000177366
10 *235:22 *1548:I 4.41641e-06
11 *235:22 *1571:I 6.43353e-05
12 *235:22 *247:24 0.000202598
13 *235:22 *248:10 5.1289e-05
14 *235:22 *296:10 6.76124e-05
15 *235:22 *298:14 0.000136871
16 *235:22 *298:65 0.000210169
17 *235:22 *298:76 0.00031602
18 *235:22 *342:30 1.26395e-05
19 dac_n[0] *235:22 3.48555e-05
20 dac_n[1] *235:22 1.52387e-05
21 dac_n[2] *235:22 0.000133353
22 dac_n[5] *235:22 5.84691e-05
23 dac_n[6] *235:22 2.78382e-05
24 dac_n[7] *235:22 0.000206434
25 dac_p[0] *235:22 0.000207717
26 dac_p[1] *235:22 0.000169274
27 dac_p[4] *235:22 0.000263271
28 dac_p[6] *235:22 0.000158887
29 dac_p[8] *235:22 1.90981e-05
30 *1396:A2 *235:22 2.22657e-05
31 *1458:D *235:22 0.000659788
32 *1564:I *235:22 0.000205818
33 *1566:I *235:22 0.000234268
34 *86:20 *235:22 1.52768e-05
35 *100:16 *235:22 1.33572e-05
36 *210:23 *235:22 0
*RES
1 *1266:ZN *235:22 46.288 
2 *235:22 *1567:I 4.5 
*END

*D_NET *236 0.0110447
*CONN
*I *1568:I I *D gf180mcu_fd_sc_mcu7t5v0__buf_2
*I *1267:ZN O *D gf180mcu_fd_sc_mcu7t5v0__clkinv_1
*CAP
1 *1568:I 0.00299734
2 *1267:ZN 0.00299734
3 *1568:I *1600:I 0.00392748
4 *1568:I *298:86 6.06802e-05
5 *1396:A1 *1568:I 0.00106183
*RES
1 *1267:ZN *1568:I 47.9 
*END

*D_NET *237 0.00979354
*CONN
*I *1569:I I *D gf180mcu_fd_sc_mcu7t5v0__buf_2
*I *1268:ZN O *D gf180mcu_fd_sc_mcu7t5v0__clkinv_1
*CAP
1 *1569:I 0.00171093
2 *1268:ZN 0.00171093
3 *1569:I *1250:I 0.000228031
4 *1569:I *1299:A2 0.000669873
5 *1569:I *1529:I 0.000160123
6 *1569:I *307:18 0.000213214
7 *1569:I *345:25 0.000252881
8 *1569:I *345:40 0.00082829
9 cmp_rst *1569:I 0.00043222
10 *443:I *1569:I 0.000900625
11 *1251:I *1569:I 5.72245e-06
12 *1299:B *1569:I 0.000144194
13 *1382:A2 *1569:I 0.00195318
14 *1457:D *1569:I 3.19219e-05
15 *1541:I *1569:I 0.000201562
16 *4:30 *1569:I 0.000186024
17 *98:12 *1569:I 0.000145505
18 *99:12 *1569:I 1.83267e-05
*RES
1 *1268:ZN *1569:I 38.9 
*END

*D_NET *238 0.00791455
*CONN
*I *1570:I I *D gf180mcu_fd_sc_mcu7t5v0__buf_2
*I *1374:A1 I *D gf180mcu_fd_sc_mcu7t5v0__aoi22_1
*I *1269:ZN O *D gf180mcu_fd_sc_mcu7t5v0__clkinv_1
*CAP
1 *1570:I 0.00227001
2 *1374:A1 0.000890502
3 *1269:ZN 0
4 *238:8 0.00316051
5 *1374:A1 *1287:A1 6.34602e-05
6 *1374:A1 *1379:A1 2.293e-05
7 *1374:A1 *280:48 8.36666e-05
8 *1374:A1 *296:36 6.90444e-05
9 *1374:A1 *308:22 5.63011e-05
10 *1570:I *1460:RN 0.000342528
11 *1570:I *296:36 1.45915e-05
12 dac_n[9] *1570:I 0.00018407
13 *1396:A1 *1374:A1 0
14 *1396:A1 *1570:I 0
15 *1457:D *1570:I 0.000107455
16 *86:20 *1570:I 0
17 *120:71 *1374:A1 0.000460321
18 *122:20 *1374:A1 2.293e-05
19 *233:22 *1374:A1 4.89071e-05
20 *233:22 *1570:I 0.000117329
*RES
1 *1269:ZN *238:8 13.5 
2 *238:8 *1374:A1 18.896 
3 *238:8 *1570:I 25.66 
*END

*D_NET *239 0.048651
*CONN
*I *402:I I *D gf180mcu_fd_sc_mcu7t5v0__antenna
*I *376:I I *D gf180mcu_fd_sc_mcu7t5v0__antenna
*I *448:I I *D gf180mcu_fd_sc_mcu7t5v0__antenna
*I *1571:I I *D gf180mcu_fd_sc_mcu7t5v0__buf_2
*I *1346:A1 I *D gf180mcu_fd_sc_mcu7t5v0__nand2_1
*I *350:I I *D gf180mcu_fd_sc_mcu7t5v0__antenna
*I *1260:I I *D gf180mcu_fd_sc_mcu7t5v0__clkinv_1
*I *1445:Q O *D gf180mcu_fd_sc_mcu7t5v0__dffrnq_1
*CAP
1 *402:I 4.79708e-06
2 *376:I 0.000100679
3 *448:I 0.000149676
4 *1571:I 0.00110996
5 *1346:A1 0.000568212
6 *350:I 0.0024834
7 *1260:I 0.000726458
8 *1445:Q 0.000841822
9 *239:97 0.00206823
10 *239:83 0.000995281
11 *239:47 0.0034881
12 *239:41 0.00443794
13 *239:18 0.00536941
14 *239:12 0.00157412
15 *350:I *358:I 4.08987e-05
16 *350:I *451:I 0
17 *350:I *1392:I0 0.000459413
18 *350:I *1392:I1 0.000127097
19 *350:I *1466:RN 0.000929882
20 *350:I *1588:I 0.000303788
21 *350:I *248:65 0
22 *350:I *248:89 0
23 *350:I *258:8 2.47642e-05
24 *350:I *274:114 6.48951e-05
25 *350:I *326:27 2.06694e-05
26 *376:I *288:20 0.000121542
27 *402:I *1304:A1 8.75225e-05
28 *448:I *305:8 0
29 *1260:I *1304:A2 0.00017871
30 *1260:I *1598:I 2.88786e-05
31 *1260:I *296:46 0
32 *1260:I *296:61 0.000103787
33 *1346:A1 *1346:A2 7.3227e-05
34 *1346:A1 *310:16 7.3227e-05
35 *1346:A1 *344:27 3.49135e-06
36 *1571:I *1288:B 0.000230678
37 *1571:I *1290:A1 8.39112e-05
38 *1571:I *1290:A2 0.000195927
39 *1571:I *1381:A1 1.82665e-05
40 *1571:I *1461:RN 0.000557521
41 *1571:I *1548:I 4.86581e-05
42 *1571:I *296:36 0.000573794
43 *1571:I *298:14 0
44 *1571:I *304:12 0
45 *1571:I *305:8 0
46 *1571:I *342:30 0
47 *239:12 *240:12 0.000170332
48 *239:12 *243:21 0
49 *239:12 *292:16 0.000873805
50 *239:12 *308:22 2.20526e-06
51 *239:41 *292:16 0.000416422
52 *239:41 *292:41 0.00214151
53 *239:41 *308:22 0.00017563
54 *239:47 *380:I 0.000359682
55 *239:47 *1601:I 0.00095544
56 *239:83 *288:20 0.000303427
57 *239:97 *288:26 2.69165e-05
58 *239:97 *341:14 0.000230957
59 dac_n[2] *1571:I 1.04132e-05
60 *414:I *239:97 0.000248638
61 *1273:A2 *239:41 0
62 *1273:A2 *239:83 0
63 *1280:A1 *1571:I 0.000156831
64 *1280:A1 *239:97 0.000294158
65 *1280:A2 *1571:I 0.000896332
66 *1289:A2 *448:I 0.000512365
67 *1289:A2 *1571:I 8.88506e-05
68 *1296:A3 *239:47 0.000106635
69 *1296:A3 *239:97 0
70 *1299:B *1346:A1 4.92801e-06
71 *1340:B *350:I 0.000146246
72 *1343:A2 *350:I 6.60969e-06
73 *1348:A2 *1260:I 0.000189587
74 *1357:B *239:41 0
75 *1369:B *1571:I 2.53329e-06
76 *1407:C *350:I 0.000117412
77 *1415:A2 *1346:A1 0.000127598
78 *1423:D *350:I 0.00102836
79 *1443:D *350:I 1.12495e-05
80 *1443:CLK *350:I 0.00116662
81 *1446:D *239:41 0
82 *1452:D *1571:I 0
83 *1460:D *448:I 1.96827e-05
84 *1462:D *376:I 0.000126174
85 *1466:D *1346:A1 6.65679e-05
86 *1475:I *350:I 0
87 *1498:I *1571:I 7.45328e-07
88 *4:30 *376:I 4.60395e-05
89 *7:28 *1260:I 0
90 *7:28 *239:18 0
91 *100:31 *239:97 0.0011389
92 *110:33 *239:41 0
93 *113:10 *350:I 0.000534842
94 *113:16 *350:I 4.50311e-05
95 *120:71 *376:I 3.65527e-05
96 *120:71 *239:41 0.00132358
97 *120:71 *239:83 0.000141531
98 *122:20 *1571:I 0.000148664
99 *124:16 *376:I 7.39242e-05
100 *124:16 *239:97 0.000402904
101 *126:28 *239:97 4.56663e-06
102 *131:12 *1346:A1 0.000131265
103 *166:12 *1346:A1 7.30988e-05
104 *166:26 *350:I 0
105 *166:26 *1260:I 0.00264092
106 *166:26 *1346:A1 0
107 *166:26 *239:12 0
108 *166:26 *239:18 0.00189273
109 *208:279 *350:I 0
110 *208:399 *376:I 2.02486e-05
111 *212:28 *350:I 0.000150319
112 *213:21 *350:I 7.14976e-06
113 *219:18 *402:I 8.75225e-05
114 *228:24 *350:I 0.000119798
115 *229:22 *239:41 7.21833e-05
116 *231:10 *239:47 2.81554e-06
117 *231:10 *239:97 0.000238584
118 *235:22 *1571:I 6.43353e-05
*RES
1 *1445:Q *239:12 18.972 
2 *239:12 *239:18 6.75162 
3 *239:18 *1260:I 20.8826 
4 *239:18 *239:41 26.8467 
5 *239:41 *239:47 13.028 
6 *239:47 *350:I 33.336 
7 *239:47 *1346:A1 16.616 
8 *239:41 *239:83 0.988 
9 *239:83 *239:97 24.764 
10 *239:97 *1571:I 32.456 
11 *239:97 *448:I 5.944 
12 *239:83 *376:I 14.488 
13 *239:12 *402:I 13.728 
*END

*D_NET *240 0.0156743
*CONN
*I *1349:A1 I *D gf180mcu_fd_sc_mcu7t5v0__nand2_1
*I *1572:I I *D gf180mcu_fd_sc_mcu7t5v0__buf_2
*I *1261:I I *D gf180mcu_fd_sc_mcu7t5v0__clkinv_1
*I *1446:Q O *D gf180mcu_fd_sc_mcu7t5v0__dffrnq_1
*CAP
1 *1349:A1 0.00179049
2 *1572:I 0.00049245
3 *1261:I 3.28034e-05
4 *1446:Q 0.000343802
5 *240:23 0.00323102
6 *240:12 0.00132468
7 *1349:A1 *1248:I 0.000146543
8 *1349:A1 *1305:A2 0
9 *1349:A1 *1305:B 0.000528909
10 *1349:A1 *1349:A2 2.01247e-05
11 *1349:A1 *1375:A3 0
12 *1349:A1 *1407:A2 0.00021953
13 *1349:A1 *1462:RN 5.67474e-05
14 *1349:A1 *272:117 9.88736e-06
15 *1349:A1 *272:125 4.58601e-06
16 *1349:A1 *290:188 0.00179656
17 *1349:A1 *310:16 4.32952e-05
18 *1349:A1 *312:29 0.000234192
19 *240:12 *243:21 2.0537e-05
20 *240:12 *291:10 0.000233334
21 *240:12 *291:18 6.91347e-05
22 *240:12 *291:44 0
23 *240:12 *312:29 0.000141739
24 *240:23 *1264:I 0
25 *240:23 *1427:SETN 0.00053258
26 *240:23 *1428:RN 0.000182263
27 *240:23 *1445:RN 6.53072e-05
28 *240:23 *291:79 0.000307974
29 *422:I *1572:I 6.65471e-08
30 *1301:A2 *1349:A1 1.24754e-05
31 *1325:A4 *1349:A1 0.000482928
32 *1341:A3 *1349:A1 3.75308e-05
33 *1350:B *240:23 0
34 *1398:S *240:23 0
35 *1399:A1 *240:23 2.11901e-05
36 *1400:A2 *1572:I 0.000135954
37 *1400:B2 *1349:A1 0.000361409
38 *1400:B2 *1572:I 0.000395038
39 *1415:B *1349:A1 5.02107e-05
40 *1428:CLK *1572:I 0.000185193
41 *1477:I *240:23 0
42 *1502:I *1349:A1 4.2318e-06
43 *1519:I *240:23 2.31729e-05
44 *94:37 *240:23 0
45 *123:45 *1349:A1 0
46 *159:12 *1349:A1 0.000376606
47 *159:41 *1349:A1 0.000463338
48 *168:10 *1349:A1 0.000183364
49 *208:19 *1572:I 6.21706e-05
50 *208:85 *1349:A1 0.00015945
51 *208:85 *1572:I 0.000256565
52 *208:85 *240:23 0
53 *230:41 *1349:A1 1.44706e-05
54 *230:41 *1572:I 0.000450132
55 *239:12 *240:12 0.000170332
*RES
1 *1446:Q *240:12 16.54 
2 *240:12 *1261:I 4.728 
3 *240:12 *240:23 10.504 
4 *240:23 *1572:I 13.56 
5 *240:23 *1349:A1 25.948 
*END

*D_NET *241 0.0406131
*CONN
*I *405:I I *D gf180mcu_fd_sc_mcu7t5v0__antenna
*I *351:I I *D gf180mcu_fd_sc_mcu7t5v0__antenna
*I *383:I I *D gf180mcu_fd_sc_mcu7t5v0__antenna
*I *1352:A1 I *D gf180mcu_fd_sc_mcu7t5v0__nand2_1
*I *449:I I *D gf180mcu_fd_sc_mcu7t5v0__antenna
*I *1573:I I *D gf180mcu_fd_sc_mcu7t5v0__buf_2
*I *1262:I I *D gf180mcu_fd_sc_mcu7t5v0__clkinv_1
*I *1447:Q O *D gf180mcu_fd_sc_mcu7t5v0__dffrnq_1
*CAP
1 *405:I 0.000535114
2 *351:I 0.000126772
3 *383:I 4.44615e-05
4 *1352:A1 0.000510621
5 *449:I 0
6 *1573:I 0.000109748
7 *1262:I 0.000688446
8 *1447:Q 5.10386e-05
9 *241:119 0.00101919
10 *241:111 0.00191415
11 *241:88 0.00279008
12 *241:62 0.00381695
13 *241:31 0.00198019
14 *241:6 0.000794903
15 *351:I *401:I 0.000124769
16 *351:I *1393:S 4.97386e-06
17 *351:I *324:23 0.000113696
18 *405:I *404:I 0
19 *405:I *1314:A1 1.19364e-05
20 *405:I *1385:I0 0.000597866
21 *405:I *314:16 0
22 *1262:I *1304:A1 0.000425895
23 *1262:I *1304:A2 1.73164e-05
24 *1262:I *1364:A1 0.00021548
25 *1262:I *265:42 0.000135741
26 *1262:I *281:43 0.000623573
27 *1262:I *296:61 3.43325e-05
28 *1352:A1 *272:186 0.000250099
29 *1352:A1 *325:8 0.000117245
30 *1352:A1 *325:12 1.46914e-05
31 *241:62 *404:I 0
32 *241:62 *1271:A1 0.00016585
33 *241:62 *1350:C 0.000332936
34 *241:62 *1385:I1 8.25744e-05
35 *241:62 *1386:I0 0.000317539
36 *241:62 *1386:I1 0.00122914
37 *241:62 *1436:RN 0.00142689
38 *241:62 *1459:SETN 0.000547661
39 *241:62 *269:65 0.000307983
40 *241:62 *328:10 4.32587e-06
41 *241:62 *328:16 2.86931e-05
42 *241:62 *328:43 4.40663e-05
43 *241:62 *331:10 0.00011129
44 *241:88 *450:I 0.000106951
45 *241:88 *1324:A1 0.000335361
46 *241:88 *1387:I1 0.000361309
47 *241:88 *269:65 1.76797e-05
48 *241:88 *269:69 5.39108e-05
49 *241:111 *364:I 0.000193933
50 *241:111 *409:I 0.000372811
51 *241:111 *451:I 0.000118775
52 *241:111 *1391:I0 3.64667e-05
53 *241:111 *1442:RN 3.73535e-05
54 *241:111 *274:155 3.46377e-05
55 *241:119 *401:I 0.000145096
56 *241:119 *1434:RN 0.000118665
57 *241:119 *1561:I 0.000137402
58 *241:119 *296:116 0.00160932
59 *241:119 *324:23 0.000462569
60 dac_p[2] *1262:I 0.00023882
61 dac_p[2] *241:6 0.0004003
62 dout[1] *405:I 6.48981e-05
63 samp_bot *1262:I 0
64 *382:I *1352:A1 1.35144e-05
65 *385:I *383:I 8.19174e-06
66 *385:I *241:119 7.14515e-05
67 *417:I *241:111 0.000149295
68 *424:I *241:88 1.42593e-05
69 *1251:I *1352:A1 0.000104509
70 *1277:A3 *1352:A1 5.63027e-05
71 *1306:A1 *241:62 4.07337e-05
72 *1306:A1 *241:88 0.000253072
73 *1324:A2 *241:88 0.000607928
74 *1324:B *241:88 7.04542e-05
75 *1324:B *241:111 0.00018487
76 *1335:B *241:111 0.000147821
77 *1348:A2 *1262:I 6.46595e-05
78 *1351:A2 *1262:I 0
79 *1354:B *241:31 0.000380896
80 *1354:B *241:62 0.000890667
81 *1386:S *405:I 0.000384129
82 *1386:S *241:62 0.000294247
83 *1415:A1 *1352:A1 2.57289e-05
84 *1416:D *241:62 5.83188e-05
85 *1426:D *1262:I 4.98138e-05
86 *1426:D *1573:I 4.37105e-05
87 *1426:CLK *1262:I 0.000358337
88 *1426:CLK *241:6 0.00010635
89 *1436:D *241:62 0.00207047
90 *1437:D *241:62 1.57373e-05
91 *1439:D *241:88 0.00013081
92 *1446:D *1262:I 6.18153e-06
93 *1446:D *241:31 0.000109817
94 *1446:D *241:62 0.000581347
95 *1447:D *1262:I 0.000294461
96 *1448:CLK *1262:I 0
97 *1456:D *241:6 0.000220954
98 *1459:CLK *1573:I 0.000121186
99 *1537:I *241:62 0.000774436
100 *99:12 *1352:A1 5.84953e-05
101 *146:36 *241:88 0.00254266
102 *146:36 *241:111 0.000672124
103 *170:55 *241:119 0.000166124
104 *191:20 *241:62 3.83835e-06
105 *191:20 *241:88 0.000177797
106 *191:34 *241:111 0.000567652
107 *208:205 *241:88 6.73926e-05
108 *208:215 *241:88 0.000134564
109 *208:229 *241:88 9.3257e-05
110 *208:241 *241:88 0.000356887
111 *208:241 *241:111 0.000149336
112 *212:28 *241:111 6.23713e-06
113 *213:6 *241:111 4.94986e-05
114 *213:8 *241:111 3.40006e-05
115 *219:10 *241:62 0.000289932
116 *220:17 *241:62 2.32744e-05
117 *232:56 *405:I 8.70294e-07
*RES
1 *1447:Q *241:6 5.64 
2 *241:6 *1262:I 20.796 
3 *241:6 *241:31 5.488 
4 *241:31 *1573:I 9.836 
5 *241:31 *241:62 40.876 
6 *241:62 *241:88 29.916 
7 *241:88 *449:I 4.5 
8 *241:88 *241:111 33.9 
9 *241:111 *241:119 10.656 
10 *241:119 *1352:A1 17.148 
11 *241:119 *383:I 4.728 
12 *241:111 *351:I 10.216 
13 *241:62 *405:I 13.788 
*END

*D_NET *242 0.01229
*CONN
*I *1535:I I *D gf180mcu_fd_sc_mcu7t5v0__dlyb_1
*I *1529:I I *D gf180mcu_fd_sc_mcu7t5v0__dlyb_1
*I *1540:Z O *D gf180mcu_fd_sc_mcu7t5v0__dlyb_1
*CAP
1 *1535:I 0.000572466
2 *1529:I 0.00294251
3 *1540:Z 0
4 *242:6 0.00351498
5 *1529:I *1250:I 0
6 *1529:I *1299:A1 8.2204e-06
7 *1529:I *1299:A2 8.81341e-06
8 *1529:I *345:25 0.000350224
9 *1529:I *345:40 0.00250834
10 *1535:I *1587:I 0
11 *1535:I *1590:I 0.000499694
12 dout[9] *1535:I 8.166e-05
13 *442:I *1535:I 0.000161264
14 *1410:A1 *1529:I 7.83779e-05
15 *1410:A2 *1529:I 7.32209e-05
16 *1412:B1 *1529:I 0.000437219
17 *1488:I *1529:I 0.000576524
18 *1569:I *1529:I 0.000160123
19 *40:13 *1529:I 5.26941e-05
20 *40:13 *1535:I 0.00010465
21 *98:12 *1529:I 0.000159012
*RES
1 *1540:Z *242:6 9 
2 *242:6 *1529:I 39.28 
3 *242:6 *1535:I 13.56 
*END

*D_NET *243 0.0331911
*CONN
*I *450:I I *D gf180mcu_fd_sc_mcu7t5v0__antenna
*I *407:I I *D gf180mcu_fd_sc_mcu7t5v0__antenna
*I *1355:A1 I *D gf180mcu_fd_sc_mcu7t5v0__nand2_1
*I *387:I I *D gf180mcu_fd_sc_mcu7t5v0__antenna
*I *1263:I I *D gf180mcu_fd_sc_mcu7t5v0__clkinv_1
*I *352:I I *D gf180mcu_fd_sc_mcu7t5v0__antenna
*I *1574:I I *D gf180mcu_fd_sc_mcu7t5v0__buf_2
*I *1448:Q O *D gf180mcu_fd_sc_mcu7t5v0__dffrnq_1
*CAP
1 *450:I 0.000383883
2 *407:I 0
3 *1355:A1 0.000217437
4 *387:I 0
5 *1263:I 0
6 *352:I 0
7 *1574:I 0.000312719
8 *1448:Q 0.00017052
9 *243:101 0.000587359
10 *243:79 0.00336113
11 *243:67 0.0047938
12 *243:36 0.00173723
13 *243:21 0.00115004
14 *243:8 0.00134269
15 *450:I *1390:S 4.36513e-05
16 *450:I *1557:I 0.00104363
17 *450:I *274:159 9.51101e-05
18 *450:I *284:12 6.68265e-05
19 *1355:A1 *369:I 2.9378e-06
20 *1574:I *1271:A1 0.000869217
21 *1574:I *1575:I 0.000124686
22 *243:8 *1575:I 0.000350455
23 *243:21 *404:I 0.000239709
24 *243:21 *1271:A1 0.000738845
25 *243:21 *1445:RN 0.00207486
26 *243:21 *1456:RN 0.000182735
27 *243:21 *291:10 4.77596e-05
28 *243:21 *308:22 6.84173e-05
29 *243:21 *328:16 0.000792474
30 *243:36 *404:I 2.99011e-05
31 *243:36 *291:44 0.000203118
32 *243:36 *328:10 0.000315319
33 *243:36 *328:16 0.000570077
34 *243:67 *406:I 0.000205431
35 *243:67 *1321:A1 0.000350464
36 *243:67 *1328:A1 0.000152231
37 *243:67 *1331:A1 0.000344521
38 *243:67 *1353:C 0.000176646
39 *243:67 *1356:A1 7.83779e-05
40 *243:67 *1365:A2 9.05415e-05
41 *243:67 *266:20 0.000590989
42 *243:67 *336:16 3.71997e-05
43 *243:67 *336:31 5.77315e-05
44 *243:79 *367:I 1.08266e-05
45 *243:79 *369:I 5.49909e-05
46 *243:79 *406:I 0.000499793
47 *243:79 *1323:A1 3.47578e-06
48 *243:79 *1393:S 1.5961e-05
49 *243:79 *276:203 0.000175692
50 *243:79 *276:216 6.80599e-05
51 *243:79 *276:220 1.52768e-05
52 *243:101 *355:I 0.000109855
53 *243:101 *406:I 0.00105035
54 *243:101 *1328:A1 0.000118534
55 *353:I *243:36 7.32779e-05
56 *386:I *1355:A1 0.000520211
57 *419:I *1355:A1 2.23598e-06
58 *1325:A1 *243:67 0.000741351
59 *1329:A3 *243:67 0.000868485
60 *1353:B1 *243:67 8.53723e-05
61 *1357:A2 *243:67 0.000287705
62 *1396:A1 *1574:I 8.03759e-06
63 *1396:A1 *243:21 6.60373e-05
64 *1398:I1 *243:21 0.000240723
65 *1426:D *243:8 4.99315e-05
66 *1441:D *450:I 0.000117348
67 *1456:D *1574:I 0
68 *1459:D *243:21 5.66215e-05
69 *1492:I *243:79 5.73322e-07
70 *1537:I *243:21 3.1146e-05
71 *1544:I *243:67 0.000292341
72 *108:43 *243:67 0.000174584
73 *109:24 *1574:I 0.000189326
74 *109:24 *243:21 0
75 *140:12 *243:67 9.49516e-05
76 *146:36 *243:79 2.6789e-05
77 *147:22 *243:67 0.000193933
78 *170:30 *243:67 0.000294286
79 *172:22 *243:67 0.000126468
80 *172:22 *243:79 0.000547581
81 *172:57 *1355:A1 0.000297639
82 *205:25 *243:67 9.85379e-05
83 *208:241 *450:I 9.92506e-05
84 *209:6 *243:8 0.000132595
85 *219:10 *243:36 4.60478e-05
86 *219:10 *243:67 4.45129e-06
87 *230:41 *243:36 2.9378e-06
88 *230:41 *243:67 0.00116937
89 *239:12 *243:21 0
90 *240:12 *243:21 2.0537e-05
91 *241:88 *450:I 0.000106951
*RES
1 *1448:Q *243:8 10.596 
2 *243:8 *1574:I 11.888 
3 *243:8 *243:21 10.412 
4 *243:21 *352:I 9 
5 *243:21 *243:36 7.768 
6 *243:36 *1263:I 4.5 
7 *243:36 *243:67 21.22 
8 *243:67 *243:79 28.624 
9 *243:79 *387:I 4.5 
10 *243:79 *1355:A1 15.476 
11 *243:67 *243:101 7.312 
12 *243:101 *407:I 4.5 
13 *243:101 *450:I 17.68 
*END

*D_NET *244 0.0117342
*CONN
*I *1358:A1 I *D gf180mcu_fd_sc_mcu7t5v0__nand2_1
*I *1264:I I *D gf180mcu_fd_sc_mcu7t5v0__clkinv_1
*I *1575:I I *D gf180mcu_fd_sc_mcu7t5v0__buf_2
*I *1449:Q O *D gf180mcu_fd_sc_mcu7t5v0__dffrnq_1
*CAP
1 *1358:A1 0
2 *1264:I 0.000975959
3 *1575:I 0.000683587
4 *1449:Q 0
5 *244:39 0.00140578
6 *244:4 0.00111341
7 *1264:I *291:79 0
8 *1264:I *293:54 0
9 *1264:I *301:10 0.000306342
10 *1575:I *1271:A1 6.01587e-06
11 *1575:I *1361:A1 0.000571164
12 *1575:I *265:42 0.000190332
13 *1575:I *281:29 1.38099e-05
14 *1575:I *281:35 0.000162943
15 *1575:I *296:46 7.46015e-06
16 *244:39 *1361:A1 0.000201947
17 *244:39 *1373:B 9.42959e-05
18 *244:39 *1549:I 0.000735838
19 *244:39 *272:46 0.000102119
20 *244:39 *301:10 0.000317544
21 *1357:A2 *1264:I 0.001317
22 *1357:A2 *244:39 0.000339034
23 *1360:A2 *244:39 7.26539e-05
24 *1374:B1 *244:39 9.62437e-05
25 *1396:A1 *1575:I 0.00139015
26 *1398:I1 *1264:I 1.3758e-05
27 *1398:I1 *244:39 5.87561e-06
28 *1400:A1 *1264:I 4.7475e-05
29 *1426:D *1575:I 0.000463174
30 *1426:D *244:39 8.75352e-05
31 *1448:CLK *1575:I 6.20836e-06
32 *1470:I *1264:I 5.87561e-06
33 *1470:I *244:39 6.3203e-05
34 *1501:I *244:39 9.88736e-06
35 *1574:I *1575:I 0.000124686
36 *94:37 *1264:I 0.000416384
37 *209:6 *1575:I 3.60751e-05
38 *240:23 *1264:I 0
39 *243:8 *1575:I 0.000350455
*RES
1 *1449:Q *244:4 4.5 
2 *244:4 *1575:I 21.48 
3 *244:4 *244:39 22.864 
4 *244:39 *1264:I 20.872 
5 *244:39 *1358:A1 4.5 
*END

*D_NET *245 0.00801881
*CONN
*I *1576:I I *D gf180mcu_fd_sc_mcu7t5v0__buf_2
*I *1361:A1 I *D gf180mcu_fd_sc_mcu7t5v0__nand2_1
*I *1265:I I *D gf180mcu_fd_sc_mcu7t5v0__clkinv_1
*I *1450:Q O *D gf180mcu_fd_sc_mcu7t5v0__dffrnq_1
*CAP
1 *1576:I 0
2 *1361:A1 0.000237394
3 *1265:I 0.00125756
4 *1450:Q 0
5 *245:31 0.000451997
6 *245:4 0.00147217
7 *1265:I *349:I 0.000149589
8 *1265:I *1366:A1 5.18232e-05
9 *1265:I *1548:I 0.000106749
10 *1265:I *246:14 0.000215894
11 *1265:I *273:61 1.81333e-05
12 *1265:I *280:31 0
13 *1361:A1 *1448:RN 0.00095848
14 *1361:A1 *1449:RN 6.01012e-06
15 *245:31 *1448:RN 6.6617e-05
16 *245:31 *1449:RN 5.87561e-06
17 *245:31 *1548:I 0.000216797
18 *245:31 *246:14 4.56273e-05
19 dac_p[5] *245:31 0.000118057
20 dac_p[7] *1265:I 0
21 dac_p[8] *1265:I 0.000132883
22 *1426:D *1361:A1 1.19084e-05
23 *1493:I *1265:I 0.000210547
24 *1503:I *1265:I 9.72579e-05
25 *1564:I *1265:I 0
26 *1575:I *1361:A1 0.000571164
27 *94:16 *1361:A1 0.000145406
28 *168:28 *1361:A1 0.0003139
29 *206:22 *1265:I 0.000887079
30 *209:6 *1361:A1 1.3458e-05
31 *230:41 *1265:I 0
32 *235:22 *1265:I 5.44885e-05
33 *244:39 *1361:A1 0.000201947
*RES
1 *1450:Q *245:4 4.5 
2 *245:4 *1265:I 22.164 
3 *245:4 *245:31 2.052 
4 *245:31 *1361:A1 17.3 
5 *245:31 *1576:I 4.5 
*END

*D_NET *246 0.0103203
*CONN
*I *1577:I I *D gf180mcu_fd_sc_mcu7t5v0__buf_2
*I *1364:A1 I *D gf180mcu_fd_sc_mcu7t5v0__nand2_1
*I *1266:I I *D gf180mcu_fd_sc_mcu7t5v0__clkinv_1
*I *1451:Q O *D gf180mcu_fd_sc_mcu7t5v0__dffrnq_1
*CAP
1 *1577:I 0
2 *1364:A1 0.000135943
3 *1266:I 0.00018037
4 *1451:Q 0.000705742
5 *246:39 0.000493987
6 *246:14 0.00124416
7 *1364:A1 *1364:A2 1.15275e-05
8 *1364:A1 *1600:I 3.42922e-06
9 *1364:A1 *281:43 5.76749e-06
10 *246:14 *1360:A1 0.000119807
11 *246:14 *1449:RN 0.000465012
12 *246:14 *272:31 0.000279761
13 *246:14 *273:61 0.000109514
14 *246:14 *281:10 7.43011e-05
15 *246:14 *299:17 0.000646838
16 *246:39 *1578:I 0.00104784
17 *246:39 *1579:I 6.65171e-05
18 dac_p[1] *1266:I 4.96184e-05
19 dac_p[1] *246:14 0.000128775
20 dac_p[4] *1266:I 9.93899e-05
21 dac_p[4] *246:14 1.53123e-05
22 dac_p[4] *246:39 5.69709e-05
23 dac_p[5] *246:14 0.000289191
24 samp_bot *1364:A1 0
25 *1262:I *1364:A1 0.00021548
26 *1265:I *246:14 0.000215894
27 *1357:A2 *246:14 0.000269342
28 *1360:B *246:14 2.52466e-05
29 *1366:B *1364:A1 0.000571762
30 *1366:B *246:39 0.000135772
31 *1373:A2 *246:14 0.000339795
32 *1493:I *246:14 9.56956e-05
33 *120:12 *246:39 0.000795929
34 *120:18 *246:39 0.000211872
35 *168:28 *1364:A1 0.000254684
36 *168:28 *246:39 0.000825867
37 *235:22 *1266:I 8.75225e-05
38 *245:31 *246:14 4.56273e-05
*RES
1 *1451:Q *246:14 16.904 
2 *246:14 *1266:I 10.14 
3 *246:14 *246:39 19.352 
4 *246:39 *1364:A1 15.78 
5 *246:39 *1577:I 4.5 
*END

*D_NET *247 0.0125043
*CONN
*I *1367:A1 I *D gf180mcu_fd_sc_mcu7t5v0__nand2_1
*I *1578:I I *D gf180mcu_fd_sc_mcu7t5v0__buf_2
*I *1267:I I *D gf180mcu_fd_sc_mcu7t5v0__clkinv_1
*I *1452:Q O *D gf180mcu_fd_sc_mcu7t5v0__dffrnq_1
*CAP
1 *1367:A1 0.000506817
2 *1578:I 0.000494002
3 *1267:I 0.000161978
4 *1452:Q 0
5 *247:24 0.00133171
6 *247:4 0.00118255
7 *1267:I *349:I 3.84756e-06
8 *1367:A1 *1367:A2 0.000255722
9 *1367:A1 *248:10 0.000147313
10 *1578:I *248:16 0.00049212
11 *247:24 *349:I 0.000748141
12 *247:24 *1269:I 8.53637e-06
13 *247:24 *249:12 0.000204182
14 *247:24 *273:61 3.08785e-05
15 dac_n[0] *1367:A1 0.000138428
16 dac_n[3] *1367:A1 8.55327e-05
17 dac_p[5] *1267:I 1.41342e-05
18 dac_p[5] *247:24 2.34202e-05
19 dac_p[6] *1267:I 4.52539e-06
20 dac_p[7] *247:24 0.000402657
21 dac_p[8] *247:24 0.000174077
22 dac_p[9] *247:24 0.000379274
23 *1366:B *1578:I 0.000601458
24 *1396:A1 *1578:I 0.000245493
25 *1451:CLK *247:24 0.000255235
26 *1564:I *247:24 0.00013343
27 *1566:I *1367:A1 0.0026332
28 *1566:I *247:24 0.000121885
29 *120:12 *1578:I 0.000225189
30 *120:18 *1578:I 4.22722e-05
31 *235:22 *1367:A1 0.00020583
32 *235:22 *247:24 0.000202598
33 *246:39 *1578:I 0.00104784
*RES
1 *1452:Q *247:4 4.5 
2 *247:4 *247:24 21.024 
3 *247:24 *1267:I 9.684 
4 *247:24 *1578:I 24.536 
5 *247:4 *1367:A1 11.644 
*END

*D_NET *248 0.0326167
*CONN
*I *393:I I *D gf180mcu_fd_sc_mcu7t5v0__antenna
*I *451:I I *D gf180mcu_fd_sc_mcu7t5v0__antenna
*I *354:I I *D gf180mcu_fd_sc_mcu7t5v0__antenna
*I *1268:I I *D gf180mcu_fd_sc_mcu7t5v0__clkinv_1
*I *408:I I *D gf180mcu_fd_sc_mcu7t5v0__antenna
*I *1579:I I *D gf180mcu_fd_sc_mcu7t5v0__buf_2
*I *1370:A1 I *D gf180mcu_fd_sc_mcu7t5v0__nand2_1
*I *1453:Q O *D gf180mcu_fd_sc_mcu7t5v0__dffrnq_1
*CAP
1 *393:I 2.20501e-05
2 *451:I 0.000310494
3 *354:I 0.000189813
4 *1268:I 0
5 *408:I 0
6 *1579:I 0.000258348
7 *1370:A1 7.0961e-05
8 *1453:Q 0.000151282
9 *248:89 0.00105513
10 *248:71 0.0013629
11 *248:65 0.00504312
12 *248:48 0.00344378
13 *248:16 0.00105464
14 *248:10 0.00117294
15 *354:I *272:186 0
16 *393:I *1442:RN 1.52691e-05
17 *451:I *337:29 0.000533242
18 *1370:A1 *273:61 1.72118e-05
19 *1579:I *273:61 2.88662e-05
20 *248:10 *1367:A2 2.86762e-07
21 *248:16 *308:22 0.000827567
22 *248:48 *363:I 0.000433917
23 *248:48 *1269:I 0.000904331
24 *248:48 *1367:A2 1.01095e-05
25 *248:48 *1548:I 7.12411e-05
26 *248:48 *342:30 5.14116e-06
27 *248:65 *1269:I 0.000281049
28 *248:65 *1288:B 0.000191557
29 *248:65 *1290:A1 0.000147223
30 *248:65 *1296:A1 9.86383e-05
31 *248:65 *1462:RN 0.000607791
32 *248:65 *1466:RN 5.35978e-05
33 *248:65 *1522:I 0.000156259
34 *248:65 *1548:I 7.85892e-05
35 *248:65 *298:14 0.00180522
36 *248:71 *272:78 0.00267078
37 *248:71 *272:186 0.00037755
38 *248:89 *1514:I 0
39 *248:89 *284:24 7.39173e-05
40 *248:89 *337:29 0.000166432
41 *248:89 *338:28 4.64641e-05
42 dac_n[0] *248:10 6.74954e-06
43 dac_p[4] *1579:I 0.000119715
44 dac_p[7] *1579:I 0.000223822
45 *350:I *451:I 0
46 *350:I *248:65 0
47 *350:I *248:89 0
48 *360:I *354:I 6.49038e-05
49 *419:I *354:I 1.3174e-05
50 *419:I *248:71 0
51 *1277:A3 *354:I 1.15966e-05
52 *1278:A2 *248:65 1.13998e-05
53 *1280:A3 *248:65 2.93577e-05
54 *1324:B *393:I 3.73535e-05
55 *1340:A2 *248:65 0.000741125
56 *1340:A2 *248:89 0.000273216
57 *1340:B *248:65 3.21571e-05
58 *1343:A2 *248:65 1.02876e-05
59 *1343:A2 *248:71 0.000270792
60 *1343:A2 *248:89 3.42922e-06
61 *1360:B *1579:I 2.27233e-05
62 *1366:B *1579:I 4.72409e-05
63 *1367:A1 *248:10 0.000147313
64 *1369:A2 *248:65 0.000123855
65 *1369:B *248:65 0
66 *1372:B *1370:A1 4.04235e-05
67 *1372:B *1579:I 7.4008e-05
68 *1372:B *248:48 2.29479e-05
69 *1377:A2 *248:65 0.000354601
70 *1396:A1 *248:16 0.00388717
71 *1407:C *248:65 0.000124069
72 *1425:D *451:I 1.67274e-06
73 *1425:D *248:89 0.000393052
74 *1443:D *248:89 5.1176e-05
75 *1443:CLK *248:89 0
76 *1449:CLK *1579:I 0.000140092
77 *1455:D *248:65 4.02215e-05
78 *1487:I *1579:I 0.000308746
79 *1499:I *248:65 0.000208338
80 *1578:I *248:16 0.00049212
81 *120:12 *248:16 0.000146833
82 *120:71 *248:48 2.79905e-06
83 *122:20 *248:48 0
84 *213:21 *451:I 8.32999e-05
85 *213:21 *248:89 0
86 *227:31 *354:I 8.06713e-05
87 *235:22 *248:10 5.1289e-05
88 *241:111 *451:I 0.000118775
89 *246:39 *1579:I 6.65171e-05
*RES
1 *1453:Q *248:10 9.912 
2 *248:10 *248:16 19.108 
3 *248:16 *1370:A1 9.38 
4 *248:16 *1579:I 11.964 
5 *248:10 *248:48 7.844 
6 *248:48 *408:I 4.5 
7 *248:48 *248:65 26.92 
8 *248:65 *248:71 18.196 
9 *248:71 *1268:I 9 
10 *248:71 *354:I 10.444 
11 *248:65 *248:89 5.092 
12 *248:89 *451:I 20.584 
13 *248:89 *393:I 9.228 
*END

*D_NET *249 0.00583116
*CONN
*I *1269:I I *D gf180mcu_fd_sc_mcu7t5v0__clkinv_1
*I *1580:I I *D gf180mcu_fd_sc_mcu7t5v0__buf_2
*I *1454:Q O *D gf180mcu_fd_sc_mcu7t5v0__dffrnq_1
*CAP
1 *1269:I 0.000410626
2 *1580:I 0
3 *1454:Q 0.000197722
4 *249:12 0.000608347
5 *1269:I *349:I 0.000286283
6 *1269:I *363:I 0.000194221
7 *1269:I *1454:RN 0.000374182
8 *1269:I *1548:I 2.2413e-05
9 *1269:I *1598:I 2.71306e-05
10 *1269:I *304:12 0.000193933
11 *1269:I *304:14 0.000835667
12 *249:12 *349:I 2.68222e-05
13 dac_p[7] *249:12 0
14 dac_p[8] *249:12 6.0051e-05
15 *1564:I *1269:I 0.000209394
16 *1564:I *249:12 0.000307983
17 *120:71 *1269:I 0.000195797
18 *235:22 *1269:I 0.000482488
19 *247:24 *1269:I 8.53637e-06
20 *247:24 *249:12 0.000204182
21 *248:48 *1269:I 0.000904331
22 *248:65 *1269:I 0.000281049
*RES
1 *1454:Q *249:12 15.172 
2 *249:12 *1580:I 4.5 
3 *249:12 *1269:I 20.796 
*END

*D_NET *250 0.00300372
*CONN
*I *1385:I0 I *D gf180mcu_fd_sc_mcu7t5v0__mux2_2
*I *1581:I I *D gf180mcu_fd_sc_mcu7t5v0__buf_2
*I *1416:Q O *D gf180mcu_fd_sc_mcu7t5v0__dffrnq_1
*CAP
1 *1385:I0 0.000418669
2 *1581:I 0.000257975
3 *1416:Q 0
4 *250:4 0.000676645
5 *1385:I0 *404:I 0.000185099
6 *1385:I0 *285:51 0
7 *1385:I0 *289:53 0.000305982
8 *1385:I0 *314:6 0
9 *1581:I *289:38 0.000171585
10 *1581:I *289:53 0.000264222
11 *1581:I *314:6 0
12 dout[1] *1581:I 8.38119e-05
13 *405:I *1385:I0 0.000597866
14 *232:56 *1385:I0 4.18603e-05
*RES
1 *1416:Q *250:4 4.5 
2 *250:4 *1581:I 7.008 
3 *250:4 *1385:I0 17.756 
*END

*D_NET *251 0.00337489
*CONN
*I *1386:I0 I *D gf180mcu_fd_sc_mcu7t5v0__mux2_2
*I *1582:I I *D gf180mcu_fd_sc_mcu7t5v0__buf_2
*I *1417:Q O *D gf180mcu_fd_sc_mcu7t5v0__dffrnq_1
*CAP
1 *1386:I0 0.000284591
2 *1582:I 0.000216114
3 *1417:Q 0
4 *251:4 0.000500704
5 *1386:I0 *1314:A1 0.000161528
6 *1386:I0 *1385:I1 0.000388532
7 *1386:I0 *314:16 0.000437731
8 *1582:I *366:I 0.000324241
9 *1582:I *285:51 0.000451146
10 *1582:I *314:16 0.000211091
11 *1386:S *1386:I0 2.62033e-05
12 *191:20 *1386:I0 5.54728e-05
13 *241:62 *1386:I0 0.000317539
*RES
1 *1417:Q *251:4 4.5 
2 *251:4 *1582:I 15.704 
3 *251:4 *1386:I0 17.148 
*END

*D_NET *252 0.00214676
*CONN
*I *1583:I I *D gf180mcu_fd_sc_mcu7t5v0__buf_2
*I *1387:I0 I *D gf180mcu_fd_sc_mcu7t5v0__mux2_2
*I *1418:Q O *D gf180mcu_fd_sc_mcu7t5v0__dffrnq_1
*CAP
1 *1583:I 0.000120954
2 *1387:I0 0.000211778
3 *1418:Q 0.00031004
4 *252:10 0.000642772
5 *1387:I0 *404:I 0
6 *1583:I *285:51 0.000222279
7 *252:10 *396:I 0.000255722
8 *252:10 *404:I 0
9 *252:10 *1556:I 0.000255722
10 dout[2] *1583:I 6.76345e-05
11 dout[2] *252:10 5.69226e-05
12 dout[3] *1583:I 2.9378e-06
*RES
1 *1418:Q *252:10 11.432 
2 *252:10 *1387:I0 10.14 
3 *252:10 *1583:I 10.292 
*END

*D_NET *253 0.0100074
*CONN
*I *1522:I I *D gf180mcu_fd_sc_mcu7t5v0__dlyb_1
*I *1521:I I *D gf180mcu_fd_sc_mcu7t5v0__buf_2
*I *1541:Z O *D gf180mcu_fd_sc_mcu7t5v0__dlyb_1
*CAP
1 *1522:I 0.000271468
2 *1521:I 0.00122101
3 *1541:Z 0.00295682
4 *253:10 0.00444929
5 *1521:I *1305:B 6.25443e-05
6 *1521:I *1550:I 0.000141703
7 *1521:I *274:47 2.51673e-05
8 *1521:I *276:14 0.00055724
9 *1369:A2 *1522:I 2.97689e-05
10 *96:12 *1521:I 0.000136163
11 *248:65 *1522:I 0.000156259
*RES
1 *1541:Z *253:10 24.52 
2 *253:10 *1521:I 19.352 
3 *253:10 *1522:I 15.248 
*END

*D_NET *254 0.00455273
*CONN
*I *1388:I0 I *D gf180mcu_fd_sc_mcu7t5v0__mux2_2
*I *1584:I I *D gf180mcu_fd_sc_mcu7t5v0__buf_2
*I *1419:Q O *D gf180mcu_fd_sc_mcu7t5v0__dffrnq_1
*CAP
1 *1388:I0 0
2 *1584:I 0.000164547
3 *1419:Q 0.000596451
4 *254:12 0.000760998
5 *1584:I *392:I 0.000269865
6 *1584:I *285:51 0.000794212
7 *254:12 *366:I 0.00110906
8 *254:12 *392:I 0.000441247
9 *254:12 *1420:RN 6.84342e-05
10 *254:12 *1556:I 5.77419e-05
11 dout[2] *254:12 0
12 dout[3] *1584:I 0.000115422
13 *1387:S *1584:I 0.000145096
14 *232:18 *1584:I 2.96621e-05
*RES
1 *1419:Q *254:12 14.396 
2 *254:12 *1584:I 11.736 
3 *254:12 *1388:I0 9 
*END

*D_NET *255 0.00268531
*CONN
*I *1389:I0 I *D gf180mcu_fd_sc_mcu7t5v0__mux2_2
*I *1585:I I *D gf180mcu_fd_sc_mcu7t5v0__buf_2
*I *1420:Q O *D gf180mcu_fd_sc_mcu7t5v0__dffrnq_1
*CAP
1 *1389:I0 0.000104778
2 *1585:I 0.000144166
3 *1420:Q 0.000433656
4 *255:10 0.0006826
5 *1389:I0 *1419:RN 1.83977e-05
6 *1389:I0 *1420:RN 9.90183e-05
7 *1389:I0 *1530:I 0.00091861
8 *255:10 *1420:RN 1.80854e-05
9 dout[3] *1389:I0 0.000202968
10 dout[4] *1389:I0 3.56341e-05
11 *232:16 *1585:I 2.28332e-05
12 *232:16 *255:10 4.56663e-06
*RES
1 *1420:Q *255:10 11.128 
2 *255:10 *1585:I 9.684 
3 *255:10 *1389:I0 11.356 
*END

*D_NET *256 0.00827836
*CONN
*I *1586:I I *D gf180mcu_fd_sc_mcu7t5v0__buf_2
*I *1390:I0 I *D gf180mcu_fd_sc_mcu7t5v0__mux2_2
*I *1421:Q O *D gf180mcu_fd_sc_mcu7t5v0__dffrnq_1
*CAP
1 *1586:I 0.000249836
2 *1390:I0 0.000218151
3 *1421:Q 0.000422848
4 *256:10 0.000890835
5 *1390:I0 *1390:S 0.00263152
6 *1586:I *1513:I 0.00025334
7 *1586:I *1530:I 0.000116115
8 *1586:I *274:159 0.000144145
9 *1586:I *283:8 4.94613e-05
10 *256:10 *1390:S 6.12449e-05
11 *256:10 *1557:I 0
12 *256:10 *285:27 3.56266e-05
13 *397:I *1390:I0 0.000649619
14 *397:I *256:10 0.000695993
15 *441:I *256:10 1.53942e-05
16 *1421:D *1390:I0 0.00184423
*RES
1 *1421:Q *256:10 12.04 
2 *256:10 *1390:I0 16.068 
3 *256:10 *1586:I 11.356 
*END

*D_NET *257 0.0113566
*CONN
*I *1587:I I *D gf180mcu_fd_sc_mcu7t5v0__buf_2
*I *1391:I0 I *D gf180mcu_fd_sc_mcu7t5v0__mux2_2
*I *1422:Q O *D gf180mcu_fd_sc_mcu7t5v0__dffrnq_1
*CAP
1 *1587:I 0.00117355
2 *1391:I0 0.000995147
3 *1422:Q 0.000158418
4 *257:8 0.00232711
5 *1391:I0 *373:I 0
6 *1391:I0 *1323:A1 1.4689e-05
7 *1391:I0 *1531:I 0.000607558
8 *1391:I0 *1532:I 0.000437072
9 *1391:I0 *274:183 0
10 *1391:I0 *284:12 0.000414508
11 *1391:I0 *285:21 1.90639e-05
12 *1391:I0 *318:10 0.000362377
13 *1587:I *433:I 0.000371827
14 *1587:I *1423:RN 1.50458e-05
15 *1587:I *1588:I 0
16 *1587:I *260:12 0.000212432
17 *1587:I *285:27 0.000247117
18 *1587:I *323:16 0.00205277
19 *1587:I *326:10 0.000433289
20 *1587:I *326:23 0.000247009
21 *1587:I *326:27 2.53301e-05
22 *257:8 *373:I 0
23 *257:8 *285:21 1.28891e-05
24 dout[5] *257:8 0
25 dout[7] *1587:I 8.05819e-05
26 dout[9] *1587:I 5.3266e-05
27 *441:I *1587:I 0
28 *442:I *1587:I 8.95196e-05
29 *1324:B *1391:I0 0.000362964
30 *1335:B *1391:I0 0.000463182
31 *1422:D *1391:I0 3.79206e-06
32 *1535:I *1587:I 0
33 *191:34 *1391:I0 5.17014e-05
34 *208:249 *1391:I0 8.79023e-05
35 *241:111 *1391:I0 3.64667e-05
*RES
1 *1422:Q *257:8 9.836 
2 *257:8 *1391:I0 27.272 
3 *257:8 *1587:I 21.464 
*END

*D_NET *258 0.00730571
*CONN
*I *1588:I I *D gf180mcu_fd_sc_mcu7t5v0__buf_2
*I *1392:I0 I *D gf180mcu_fd_sc_mcu7t5v0__mux2_2
*I *1423:Q O *D gf180mcu_fd_sc_mcu7t5v0__dffrnq_1
*CAP
1 *1588:I 0.000463068
2 *1392:I0 0.000584112
3 *1423:Q 0.000359443
4 *258:8 0.00140662
5 *1392:I0 *1392:I1 0.000127097
6 *1392:I0 *1394:I0 0.000351321
7 *1392:I0 *260:12 1.04712e-05
8 *1392:I0 *284:24 4.58601e-06
9 *1392:I0 *284:31 2.34098e-05
10 *1588:I *1423:RN 8.40365e-05
11 *1588:I *1560:I 5.76063e-06
12 *1588:I *1590:I 0.00181288
13 *1588:I *326:27 0
14 *258:8 *260:12 0.000159372
15 dout[7] *1588:I 5.26401e-05
16 *350:I *1392:I0 0.000459413
17 *350:I *1588:I 0.000303788
18 *350:I *258:8 2.47642e-05
19 *1423:D *1392:I0 0.00102836
20 *1425:D *1392:I0 2.976e-05
21 *1587:I *1588:I 0
22 *208:279 *1392:I0 1.48048e-05
*RES
1 *1423:Q *258:8 11.356 
2 *258:8 *1392:I0 15.232 
3 *258:8 *1588:I 14.472 
*END

*D_NET *259 0.00319284
*CONN
*I *1589:I I *D gf180mcu_fd_sc_mcu7t5v0__buf_2
*I *1393:I0 I *D gf180mcu_fd_sc_mcu7t5v0__mux2_2
*I *1424:Q O *D gf180mcu_fd_sc_mcu7t5v0__dffrnq_1
*CAP
1 *1589:I 0.000356141
2 *1393:I0 0.00113747
3 *1424:Q 0.000781325
4 *1393:I0 *1393:S 2.37298e-05
5 *1393:I0 *1423:RN 5.98631e-06
6 *1393:I0 *1533:I 8.94741e-05
7 *1393:I0 *1560:I 0.000101052
8 *1393:I0 *1590:I 0.000342224
9 *1393:I0 *323:16 4.90608e-05
10 *1393:I0 *324:23 4.87148e-05
11 *1589:I *1393:S 1.5015e-05
12 *1589:I *1533:I 0
13 *1589:I *1590:I 2.67822e-06
14 dout[7] *1393:I0 0.000172219
15 dout[8] *1589:I 6.77492e-05
*RES
1 *1424:Q *1393:I0 24.308 
2 *1393:I0 *1589:I 11.356 
*END

*D_NET *260 0.00843763
*CONN
*I *1590:I I *D gf180mcu_fd_sc_mcu7t5v0__buf_2
*I *1394:I0 I *D gf180mcu_fd_sc_mcu7t5v0__mux2_2
*I *1425:Q O *D gf180mcu_fd_sc_mcu7t5v0__dffrnq_1
*CAP
1 *1590:I 0.000616137
2 *1394:I0 0.00060432
3 *1425:Q 0.00065287
4 *260:12 0.00187333
5 *1394:I0 *1393:S 2.01323e-05
6 *1394:I0 *284:31 3.77822e-05
7 *1394:I0 *323:16 6.27869e-05
8 *1590:I *323:16 0
9 *260:12 *433:I 0.00026286
10 *260:12 *323:16 8.44278e-05
11 dout[8] *1590:I 4.71484e-05
12 *441:I *260:12 0.0001561
13 *1392:I0 *1394:I0 0.000351321
14 *1392:I0 *260:12 1.04712e-05
15 *1393:I0 *1590:I 0.000342224
16 *1474:I *1394:I0 0.000354298
17 *1535:I *1590:I 0.000499694
18 *1587:I *260:12 0.000212432
19 *1588:I *1590:I 0.00181288
20 *1589:I *1590:I 2.67822e-06
21 *146:36 *1394:I0 7.8878e-05
22 *208:279 *1394:I0 0.000195489
23 *258:8 *260:12 0.000159372
*RES
1 *1425:Q *260:12 14.244 
2 *260:12 *1394:I0 14.32 
3 *260:12 *1590:I 16.22 
*END

*D_NET *261 0.0108102
*CONN
*I *1591:I I *D gf180mcu_fd_sc_mcu7t5v0__buf_2
*I *1468:I I *D gf180mcu_fd_sc_mcu7t5v0__buf_1
*I *1467:Q O *D gf180mcu_fd_sc_mcu7t5v0__dffrnq_1
*CAP
1 *1591:I 0.000538324
2 *1468:I 0.000342293
3 *1467:Q 0.000220232
4 *261:8 0.00110085
5 *1468:I *1309:A1 0.000233435
6 *1468:I *1309:A2 2.96621e-05
7 *1468:I *1436:RN 0.000188399
8 *1468:I *1592:I 0.000159761
9 *1468:I *328:43 0.000126077
10 *1591:I *1303:A1 2.88104e-05
11 *1591:I *1309:A2 7.39242e-05
12 *1591:I *1327:A2 0.00304208
13 *1591:I *276:114 3.83835e-06
14 *1591:I *285:51 0.000940437
15 *261:8 *1303:A1 1.60289e-05
16 *261:8 *1592:I 0.000301644
17 *261:8 *276:91 7.72375e-05
18 dout_valid *1591:I 3.70205e-05
19 *353:I *1468:I 4.59004e-05
20 *1310:B *261:8 0.000900642
21 *1315:B *1591:I 3.95687e-05
22 *1328:B *1468:I 0.000323121
23 *1347:A2 *1591:I 0.00124021
24 *1347:A2 *261:8 0.000425038
25 *1437:D *1468:I 0.00013063
26 *136:32 *261:8 0.000245008
27 *191:20 *1591:I 0
*RES
1 *1467:Q *261:8 12.876 
2 *261:8 *1468:I 21.344 
3 *261:8 *1591:I 18.956 
*END

*D_NET *262 0.00305304
*CONN
*I *1592:I I *D gf180mcu_fd_sc_mcu7t5v0__buf_2
*I *1468:Z O *D gf180mcu_fd_sc_mcu7t5v0__buf_1
*CAP
1 *1592:I 0.000430925
2 *1468:Z 0.000430925
3 *1592:I *1303:A1 0.000140663
4 *1592:I *1309:A2 1.23313e-05
5 *1592:I *1327:A2 0
6 *1592:I *1347:A1 0.000269496
7 *1592:I *1436:RN 0.000199573
8 *1592:I *269:44 5.45012e-05
9 *1592:I *276:91 9.65112e-05
10 *1592:I *277:63 7.98438e-05
11 *1437:D *1592:I 0.000876866
12 *1468:I *1592:I 0.000159761
13 *1494:I *1592:I 0
14 *261:8 *1592:I 0.000301644
*RES
1 *1468:Z *1592:I 23.244 
*END

*D_NET *263 0.0144586
*CONN
*I *1378:A2 I *D gf180mcu_fd_sc_mcu7t5v0__nor2_1
*I *1593:I I *D gf180mcu_fd_sc_mcu7t5v0__buf_2
*I *1456:Q O *D gf180mcu_fd_sc_mcu7t5v0__dffrnq_1
*CAP
1 *1378:A2 0.00200283
2 *1593:I 0.000100194
3 *1456:Q 0.000371664
4 *263:10 0.00247469
5 *1378:A2 *1378:A1 9.88736e-06
6 *1378:A2 *1395:A2 0.00560201
7 *1378:A2 *1594:I 2.21662e-05
8 *1378:A2 *264:8 0
9 *1378:A2 *276:91 0.000215472
10 *1593:I *1594:I 0.00123811
11 *263:10 *1310:A1 0.000178057
12 *263:10 *1426:RN 1.27961e-05
13 *263:10 *296:69 5.76461e-05
14 *1310:A2 *1378:A2 0.000589761
15 *1310:A2 *263:10 0.000235767
16 *1310:B *263:10 3.23898e-05
17 *1351:A2 *1378:A2 0.000281053
18 *1351:A2 *1593:I 0.000591779
19 *1436:D *263:10 0.00020355
20 *1447:D *263:10 0.00023882
*RES
1 *1456:Q *263:10 12.04 
2 *263:10 *1593:I 12.268 
3 *263:10 *1378:A2 36.696 
*END

*D_NET *264 0.0141929
*CONN
*I *1395:A2 I *D gf180mcu_fd_sc_mcu7t5v0__nor2_1
*I *1594:I I *D gf180mcu_fd_sc_mcu7t5v0__buf_2
*I *1426:Q O *D gf180mcu_fd_sc_mcu7t5v0__dffrnq_1
*CAP
1 *1395:A2 0.00152943
2 *1594:I 0.000738186
3 *1426:Q 0.000163715
4 *264:8 0.00243134
5 *1395:A2 *1378:A1 7.45328e-07
6 *1395:A2 *269:44 0.000203206
7 *1395:A2 *276:91 0.000243757
8 *1395:A2 *276:114 0.000672894
9 *1310:A2 *1395:A2 0.000281684
10 *1310:A2 *264:8 0.000341303
11 *1351:A2 *1594:I 0.00022264
12 *1378:A2 *1395:A2 0.00560201
13 *1378:A2 *1594:I 2.21662e-05
14 *1378:A2 *264:8 0
15 *1436:D *264:8 0.000372193
16 *1593:I *1594:I 0.00123811
17 *7:28 *1594:I 0.000129492
*RES
1 *1426:Q *264:8 10.596 
2 *264:8 *1594:I 15.46 
3 *264:8 *1395:A2 27.24 
*END

*D_NET *265 0.015779
*CONN
*I *1376:B I *D gf180mcu_fd_sc_mcu7t5v0__aoi21_1
*I *1595:I I *D gf180mcu_fd_sc_mcu7t5v0__buf_2
*I *1455:Q O *D gf180mcu_fd_sc_mcu7t5v0__dffrnq_1
*CAP
1 *1376:B 0.000227604
2 *1595:I 0
3 *1455:Q 0.000412604
4 *265:42 0.00226608
5 *265:14 0.00290629
6 *1376:B *431:I 0.000137505
7 *1376:B *1287:A1 7.39173e-05
8 *1376:B *280:72 0.000268627
9 *1376:B *287:44 0.000524722
10 *1376:B *287:46 0.000405436
11 *265:14 *1345:A1 0.000262482
12 *265:42 *391:I 2.13518e-05
13 *265:42 *1271:A1 1.5961e-05
14 *265:42 *1345:A1 8.14409e-05
15 *265:42 *1363:A1 0
16 *265:42 *1379:A1 1.01076e-05
17 *265:42 *1598:I 0.00116042
18 *265:42 *272:31 0
19 *265:42 *281:35 1.49019e-05
20 *265:42 *296:46 0.00239866
21 samp_bot *265:42 5.86822e-05
22 *1262:I *265:42 0.000135741
23 *1351:A2 *265:42 8.04139e-05
24 *1354:B *265:42 0.00037285
25 *1374:B2 *1376:B 0.000223363
26 *1448:CLK *265:42 0.000128893
27 *1452:D *265:14 3.1099e-05
28 *1452:D *265:42 0.00024872
29 *1454:D *265:42 0.000146166
30 *1478:I *265:42 3.83108e-05
31 *1487:I *265:42 0.000144999
32 *1498:I *265:14 0
33 *1503:I *265:42 0.0011964
34 *1504:I *1376:B 0.000982518
35 *1510:I *265:42 3.1355e-05
36 *1575:I *265:42 0.000190332
37 *109:24 *265:42 0.000358062
38 *165:6 *265:14 9.21341e-05
39 *223:36 *265:14 9.23308e-06
40 *229:22 *265:42 0.0001216
*RES
1 *1455:Q *265:14 15.704 
2 *265:14 *265:42 46.912 
3 *265:42 *1595:I 4.5 
4 *265:14 *1376:B 17.832 
*END

*D_NET *266 0.00916708
*CONN
*I *1362:B I *D gf180mcu_fd_sc_mcu7t5v0__aoi211_2
*I *1330:A2 I *D gf180mcu_fd_sc_mcu7t5v0__aoi21_1
*I *1562:Z O *D gf180mcu_fd_sc_mcu7t5v0__clkbuf_1
*CAP
1 *1362:B 0.000201324
2 *1330:A2 6.45989e-05
3 *1562:Z 0.000762896
4 *266:20 0.00102882
5 *1330:A2 *1326:A1 5.17444e-05
6 *1330:A2 *290:34 0.000415243
7 *1330:A2 *327:55 2.58986e-05
8 *1362:B *374:I 2.79905e-06
9 *1362:B *1330:B 8.39112e-05
10 *1362:B *1390:I1 0.00035108
11 *1362:B *290:10 7.11799e-06
12 *1362:B *335:31 3.5548e-05
13 *266:20 *374:I 2.33414e-05
14 *266:20 *1331:A1 0.00144801
15 *266:20 *1371:C 5.03416e-05
16 *266:20 *274:97 0.000536868
17 *266:20 *274:155 8.59272e-06
18 *1329:A3 *266:20 0.000314611
19 *1338:A2 *266:20 0.000206333
20 *1365:A1 *1330:A2 0.000534885
21 *1368:A1 *266:20 7.45328e-07
22 *1368:A2 *266:20 0.000173392
23 *1369:A2 *266:20 0.000246194
24 *1371:B *266:20 0.00021542
25 *1518:I *266:20 6.28231e-05
26 *147:22 *266:20 0.000379263
27 *170:30 *266:20 0.000177028
28 *177:24 *1362:B 0.00010315
29 *177:24 *266:20 0.000933491
30 *207:12 *266:20 0.00013063
31 *243:67 *266:20 0.000590989
*RES
1 *1562:Z *266:20 28.716 
2 *266:20 *1330:A2 10.672 
3 *266:20 *1362:B 10.52 
*END

*D_NET *267 0.00731345
*CONN
*I *1362:A2 I *D gf180mcu_fd_sc_mcu7t5v0__aoi211_2
*I *1326:A2 I *D gf180mcu_fd_sc_mcu7t5v0__aoi21_1
*I *1563:Z O *D gf180mcu_fd_sc_mcu7t5v0__clkbuf_1
*CAP
1 *1362:A2 0.000309049
2 *1326:A2 0
3 *1563:Z 0.00104781
4 *267:18 0.00135686
5 *1362:A2 *1326:A1 7.95311e-05
6 *1362:A2 *1330:B 0.000166463
7 *1362:A2 *1437:RN 3.93363e-06
8 *1362:A2 *327:55 5.77358e-05
9 *1362:A2 *335:49 0.000303528
10 *267:18 *392:I 2.20986e-05
11 *267:18 *1437:RN 0
12 *267:18 *268:31 0.000215472
13 *267:18 *334:24 6.5524e-06
14 *267:18 *335:49 8.55327e-05
15 *423:I *267:18 4.58601e-06
16 *1332:A2 *1362:A2 0.000314363
17 *1359:B *267:18 0.000134234
18 *1365:A1 *267:18 3.43304e-05
19 *1482:I *1362:A2 3.00299e-05
20 *1496:I *267:18 0.000465765
21 *1563:I *267:18 0.00188347
22 *144:25 *267:18 0.000139937
23 *146:36 *267:18 5.87561e-06
24 *208:131 *1362:A2 0.000141897
25 *208:147 *267:18 9.1255e-05
26 *208:151 *267:18 0.000413142
*RES
1 *1563:Z *267:18 23.456 
2 *267:18 *1326:A2 4.5 
3 *267:18 *1362:A2 8.3 
*END

*D_NET *268 0.00686566
*CONN
*I *1356:B1 I *D gf180mcu_fd_sc_mcu7t5v0__aoi221_2
*I *1359:A2 I *D gf180mcu_fd_sc_mcu7t5v0__aoi211_2
*I *1322:A2 I *D gf180mcu_fd_sc_mcu7t5v0__aoi21_1
*I *1365:A2 I *D gf180mcu_fd_sc_mcu7t5v0__aoi221_2
*I *1544:Z O *D gf180mcu_fd_sc_mcu7t5v0__buf_2
*CAP
1 *1356:B1 0
2 *1359:A2 0
3 *1322:A2 0.000330209
4 *1365:A2 0.000265562
5 *1544:Z 0
6 *268:31 0.000420055
7 *268:25 0.000744175
8 *268:4 0.000919891
9 *1322:A2 *392:I 1.60812e-05
10 *1322:A2 *1437:RN 3.83835e-06
11 *1322:A2 *328:60 5.46459e-05
12 *1365:A2 *1331:A1 6.817e-05
13 *1365:A2 *336:31 0.000294406
14 *268:25 *368:I 0.000105536
15 *268:25 *290:40 3.10117e-05
16 *268:31 *392:I 0.000111211
17 *268:31 *272:59 0.000449636
18 *1312:A1 *268:25 2.71189e-05
19 *1325:A1 *268:25 1.37103e-05
20 *1328:B *268:25 0.000949051
21 *1341:A1 *268:25 0.000299399
22 *1356:A2 *268:31 0.000290188
23 *1359:A1 *1322:A2 1.80877e-05
24 *1359:B *268:31 1.6848e-05
25 *1360:A2 *1322:A2 0.000159446
26 *1365:A1 *1322:A2 0
27 *1544:I *1365:A2 2.22657e-05
28 *1544:I *268:25 4.62644e-05
29 *132:14 *1322:A2 4.29e-05
30 *132:16 *1322:A2 4.58601e-06
31 *143:14 *1322:A2 2.96621e-05
32 *143:31 *1322:A2 1.17286e-05
33 *144:25 *268:31 0.000572306
34 *144:52 *1365:A2 3.37994e-05
35 *144:52 *268:25 5.88577e-05
36 *147:22 *1365:A2 4.40783e-05
37 *172:22 *1365:A2 0.000104917
38 *243:67 *1365:A2 9.05415e-05
39 *267:18 *268:31 0.000215472
*RES
1 *1544:Z *268:4 4.5 
2 *268:4 *1365:A2 15.932 
3 *268:4 *268:25 5.472 
4 *268:25 *268:31 11.356 
5 *268:31 *1322:A2 6.704 
6 *268:31 *1359:A2 4.5 
7 *268:25 *1356:B1 4.5 
*END

*D_NET *269 0.02148
*CONN
*I *1306:A2 I *D gf180mcu_fd_sc_mcu7t5v0__oai21_1
*I *1324:A1 I *D gf180mcu_fd_sc_mcu7t5v0__oai21_1
*I *1320:A1 I *D gf180mcu_fd_sc_mcu7t5v0__oai21_1
*I *1315:A1 I *D gf180mcu_fd_sc_mcu7t5v0__oai21_1
*I *1398:I0 I *D gf180mcu_fd_sc_mcu7t5v0__mux2_2
*I *1310:A1 I *D gf180mcu_fd_sc_mcu7t5v0__oai21_1
*I *1501:Z O *D gf180mcu_fd_sc_mcu7t5v0__dlyb_1
*CAP
1 *1306:A2 0
2 *1324:A1 0.000331549
3 *1320:A1 0
4 *1315:A1 0
5 *1398:I0 4.33771e-05
6 *1310:A1 0.00011092
7 *1501:Z 0.000671037
8 *269:69 0.000503856
9 *269:65 0.00114792
10 *269:44 0.00144114
11 *269:29 0.000854108
12 *269:10 0.00112716
13 *1310:A1 *1291:A1 0.000418831
14 *269:10 *276:46 0.0020821
15 *269:10 *276:77 3.66997e-06
16 *269:10 *285:57 5.43993e-05
17 *269:10 *340:18 0.000317841
18 *269:10 *340:37 6.22397e-05
19 *269:29 *1291:A1 8.13676e-05
20 *269:44 *1347:A1 9.34379e-05
21 *269:44 *276:91 0.00240362
22 *269:65 *1303:A1 0.00146313
23 *269:65 *1327:A2 0.000216276
24 *269:65 *1385:I1 9.60894e-06
25 *269:65 *276:91 0
26 *269:65 *289:14 0.000208946
27 *269:65 *289:25 0.00021548
28 *269:65 *314:16 7.31112e-05
29 *269:69 *289:14 0.000527597
30 *1306:A1 *269:65 1.97747e-05
31 *1308:A2 *269:29 0
32 *1310:A2 *1310:A1 0.000212323
33 *1310:A2 *269:10 2.49387e-05
34 *1310:A2 *269:44 0.00056558
35 *1310:B *1310:A1 8.69084e-05
36 *1310:B *269:29 0.000239075
37 *1315:A2 *269:65 0.00061951
38 *1315:B *269:44 0.000151949
39 *1315:B *269:65 0.000863418
40 *1320:B *1324:A1 9.00898e-05
41 *1324:A2 *1324:A1 0.000259473
42 *1351:A2 *269:29 0.000193116
43 *1395:A2 *269:44 0.000203206
44 *1398:S *1398:I0 2.98136e-05
45 *1398:S *269:29 0.000267019
46 *1416:D *269:65 1.23313e-05
47 *1416:CLK *269:65 0.000422015
48 *1418:CLK *1324:A1 0.000386421
49 *1435:D *269:65 0.000191292
50 *1436:D *269:10 4.94969e-05
51 *1437:D *269:65 1.5015e-05
52 *1445:D *1310:A1 8.46598e-05
53 *1445:D *269:29 0.000387765
54 *1447:CLK *269:10 0.000321964
55 *1563:I *1324:A1 5.20686e-06
56 *1592:I *269:44 5.45012e-05
57 *7:28 *269:44 0.000151508
58 *7:28 *269:65 0.000100475
59 *146:36 *1324:A1 3.04039e-05
60 *191:20 *1324:A1 1.1715e-05
61 *191:20 *269:65 2.17514e-05
62 *222:18 *1324:A1 5.1548e-05
63 *241:62 *269:65 0.000307983
64 *241:88 *1324:A1 0.000335361
65 *241:88 *269:65 1.76797e-05
66 *241:88 *269:69 5.39108e-05
67 *263:10 *1310:A1 0.000178057
*RES
1 *1501:Z *269:10 16.296 
2 *269:10 *1310:A1 10.824 
3 *269:10 *269:29 8.072 
4 *269:29 *1398:I0 4.728 
5 *269:29 *269:44 16.144 
6 *269:44 *1315:A1 4.5 
7 *269:44 *269:65 21.16 
8 *269:65 *269:69 1.824 
9 *269:69 *1320:A1 4.5 
10 *269:69 *1324:A1 8.756 
11 *269:65 *1306:A2 4.5 
*END

*D_NET *270 0.00975247
*CONN
*I *1335:A1 I *D gf180mcu_fd_sc_mcu7t5v0__oai21_1
*I *1340:A1 I *D gf180mcu_fd_sc_mcu7t5v0__oai21_1
*I *1332:A1 I *D gf180mcu_fd_sc_mcu7t5v0__oai21_1
*I *1328:A1 I *D gf180mcu_fd_sc_mcu7t5v0__oai21_1
*I *1344:A1 I *D gf180mcu_fd_sc_mcu7t5v0__oai21_1
*I *1502:Z O *D gf180mcu_fd_sc_mcu7t5v0__dlyb_1
*CAP
1 *1335:A1 0.000339573
2 *1340:A1 0.000195699
3 *1332:A1 0
4 *1328:A1 0.000425039
5 *1344:A1 0.000109164
6 *1502:Z 0
7 *270:37 0.000821457
8 *270:16 0.000601374
9 *270:10 0.000414814
10 *270:6 0.000462897
11 *1328:A1 *355:I 0.000709207
12 *1328:A1 *1323:A1 7.43595e-05
13 *1328:A1 *290:10 5.36543e-05
14 *1328:A1 *327:53 7.19408e-05
15 *1328:A1 *336:31 0.000142801
16 *1335:A1 *1514:I 1.06388e-05
17 *1335:A1 *1531:I 8.66359e-05
18 *1335:A1 *1532:I 5.64071e-05
19 *1335:A1 *337:43 6.33531e-06
20 *1340:A1 *276:192 6.20551e-05
21 *1344:A1 *274:155 0.000181491
22 *270:10 *1514:I 0
23 *270:10 *338:28 2.22939e-05
24 *270:16 *276:192 4.56565e-05
25 *270:37 *406:I 2.76442e-05
26 *270:37 *1333:B 5.32804e-05
27 *270:37 *1390:I1 2.27181e-05
28 *270:37 *274:155 0.000181132
29 *270:37 *276:192 0.000461634
30 *270:37 *327:53 0.000424397
31 *270:37 *336:16 3.40638e-05
32 *412:I *1344:A1 2.05871e-05
33 *412:I *270:10 0.000143913
34 *412:I *270:37 5.00318e-05
35 *1332:A2 *1328:A1 0.000186796
36 *1332:B *270:37 8.11514e-05
37 *1333:A1 *270:37 0.000303887
38 *1335:A2 *270:37 4.98138e-05
39 *1335:B *1335:A1 2.11567e-05
40 *1340:A2 *1340:A1 0.000161672
41 *1344:A2 *1344:A1 7.98484e-05
42 *1344:B *1340:A1 0.0011393
43 *1344:B *1344:A1 2.49331e-05
44 *1344:B *270:16 0.000262814
45 *1344:B *270:37 6.48034e-06
46 *1440:D *1328:A1 0.000144308
47 *1441:D *270:37 0.000263598
48 *1442:D *1335:A1 8.25105e-05
49 *1443:CLK *1340:A1 0.000112617
50 *1444:D *1344:A1 7.26757e-05
51 *208:251 *1335:A1 0.000112082
52 *208:251 *270:10 6.31714e-05
53 *243:67 *1328:A1 0.000152231
54 *243:101 *1328:A1 0.000118534
*RES
1 *1502:Z *270:6 9 
2 *270:6 *270:10 5.64 
3 *270:10 *270:16 5.412 
4 *270:16 *1344:A1 9.988 
5 *270:16 *270:37 9.288 
6 *270:37 *1328:A1 18.136 
7 *270:37 *1332:A1 4.5 
8 *270:10 *1340:A1 7.616 
9 *270:6 *1335:A1 11.052 
*END

*D_NET *271 0.00487357
*CONN
*I *1298:A3 I *D gf180mcu_fd_sc_mcu7t5v0__or3_1
*I *1414:A4 I *D gf180mcu_fd_sc_mcu7t5v0__or4_1
*I *1300:B I *D gf180mcu_fd_sc_mcu7t5v0__aoi211_2
*I *1545:Z O *D gf180mcu_fd_sc_mcu7t5v0__clkbuf_1
*CAP
1 *1298:A3 0.00012109
2 *1414:A4 0
3 *1300:B 0.000438385
4 *1545:Z 0.000469603
5 *271:8 0.000786898
6 *1298:A3 *1346:A2 0.00013063
7 *1298:A3 *310:16 0.000296042
8 *271:8 *310:16 7.79093e-05
9 *1279:A1 *271:8 1.43484e-05
10 *1431:CLK *1300:B 0.000185839
11 *1431:CLK *271:8 0.000297265
12 *1466:D *1298:A3 3.27801e-05
13 *1545:I *271:8 4.94368e-05
14 *123:52 *1300:B 3.5548e-05
15 *123:65 *1300:B 0.000151157
16 *127:12 *1300:B 0.000107555
17 *127:12 *271:8 0.000295705
18 *198:26 *1300:B 0.00103254
19 *211:52 *1300:B 0.000350836
*RES
1 *1545:Z *271:8 7.996 
2 *271:8 *1300:B 8.756 
3 *271:8 *1414:A4 4.5 
4 *1300:B *1298:A3 10.216 
*END

*D_NET *272 0.0484299
*CONN
*I *392:I I *D gf180mcu_fd_sc_mcu7t5v0__antenna
*I *388:I I *D gf180mcu_fd_sc_mcu7t5v0__antenna
*I *1355:A2 I *D gf180mcu_fd_sc_mcu7t5v0__nand2_1
*I *1352:A2 I *D gf180mcu_fd_sc_mcu7t5v0__nand2_1
*I *377:I I *D gf180mcu_fd_sc_mcu7t5v0__antenna
*I *1349:A2 I *D gf180mcu_fd_sc_mcu7t5v0__nand2_1
*I *1346:A2 I *D gf180mcu_fd_sc_mcu7t5v0__nand2_1
*I *380:I I *D gf180mcu_fd_sc_mcu7t5v0__antenna
*I *384:I I *D gf180mcu_fd_sc_mcu7t5v0__antenna
*I *429:I I *D gf180mcu_fd_sc_mcu7t5v0__antenna
*I *1358:A2 I *D gf180mcu_fd_sc_mcu7t5v0__nand2_1
*I *1361:A2 I *D gf180mcu_fd_sc_mcu7t5v0__nand2_1
*I *391:I I *D gf180mcu_fd_sc_mcu7t5v0__antenna
*I *1503:Z O *D gf180mcu_fd_sc_mcu7t5v0__dlyb_1
*CAP
1 *392:I 0.0013792
2 *388:I 0
3 *1355:A2 0.0001212
4 *1352:A2 0
5 *377:I 0.000362498
6 *1349:A2 0.000178816
7 *1346:A2 9.79065e-05
8 *380:I 0.000600307
9 *384:I 0
10 *429:I 0.000107544
11 *1358:A2 0
12 *1361:A2 0.000478955
13 *391:I 0.000973157
14 *1503:Z 0
15 *272:186 0.000525927
16 *272:125 0.000834996
17 *272:117 0.000819475
18 *272:109 0.00122092
19 *272:97 0.000458944
20 *272:86 0.00017547
21 *272:78 0.00101937
22 *272:63 0.00216829
23 *272:59 0.00431201
24 *272:46 0.00176822
25 *272:31 0.00118099
26 *272:4 0.0013226
27 *377:I *310:16 1.50052e-05
28 *380:I *1601:I 1.14461e-05
29 *380:I *344:27 0.000594387
30 *380:I *344:31 7.97597e-05
31 *391:I *1448:RN 6.96206e-06
32 *391:I *1449:RN 2.49644e-05
33 *392:I *1356:C 6.74954e-06
34 *392:I *1388:I1 0.000479359
35 *392:I *333:16 0.00132243
36 *392:I *333:22 0.000602303
37 *392:I *334:24 0
38 *429:I *327:20 4.60889e-06
39 *429:I *338:28 4.54374e-05
40 *1346:A2 *310:16 9.48657e-05
41 *1349:A2 *344:27 0.0002123
42 *1355:A2 *444:I 0.00028245
43 *1361:A2 *1549:I 5.39289e-05
44 *1361:A2 *289:99 0.00034885
45 *272:31 *1449:RN 8.81341e-06
46 *272:46 *1373:B 0.000121255
47 *272:59 *1258:I 3.80391e-05
48 *272:59 *1356:A1 0.000432977
49 *272:59 *277:12 0
50 *272:63 *1319:A1 0.00196754
51 *272:78 *1319:A1 0.0011886
52 *272:97 *325:8 0.000209438
53 *272:97 *325:12 0.000427267
54 *272:109 *296:116 0.000211246
55 *272:109 *325:12 0.000622671
56 *272:117 *310:16 0.000181899
57 *272:125 *310:16 5.53297e-05
58 *272:125 *344:27 0.000238407
59 dac_p[1] *272:31 0.000200879
60 dac_p[1] *272:46 0.000137304
61 dac_p[1] *272:59 1.09688e-05
62 *354:I *272:186 0
63 *378:I *377:I 0.000383104
64 *378:I *272:117 0.00105999
65 *381:I *272:117 6.48311e-06
66 *382:I *1355:A2 8.45609e-05
67 *382:I *272:86 0.000186728
68 *382:I *272:97 0.000592101
69 *382:I *272:109 0.0014684
70 *382:I *272:186 5.56482e-06
71 *386:I *1355:A2 7.39173e-05
72 *386:I *272:186 3.64531e-05
73 *412:I *429:I 1.10625e-06
74 *419:I *1355:A2 4.76887e-05
75 *419:I *272:78 0
76 *419:I *272:186 6.44309e-05
77 *1277:A3 *272:86 3.40983e-06
78 *1277:A3 *272:97 1.49066e-06
79 *1277:A3 *272:186 3.42922e-06
80 *1289:A2 *377:I 0.000814298
81 *1291:A2 *1361:A2 6.85461e-05
82 *1298:A3 *1346:A2 0.00013063
83 *1301:A2 *272:125 8.36287e-05
84 *1301:B1 *377:I 0.000127419
85 *1301:B2 *272:117 8.5629e-06
86 *1317:A2 *392:I 0.000480578
87 *1322:A2 *392:I 1.60812e-05
88 *1343:A2 *272:63 0.00040002
89 *1343:A2 *272:78 0.000230884
90 *1344:A2 *429:I 0.000146548
91 *1346:A1 *1346:A2 7.3227e-05
92 *1349:A1 *1349:A2 2.01247e-05
93 *1349:A1 *272:117 9.88736e-06
94 *1349:A1 *272:125 4.58601e-06
95 *1352:A1 *272:186 0.000250099
96 *1356:A2 *272:59 0.000328042
97 *1357:A2 *272:31 1.12062e-05
98 *1357:A2 *272:46 4.87684e-05
99 *1357:A2 *272:59 0.00166693
100 *1359:B *392:I 2.02783e-05
101 *1359:B *272:59 8.33427e-05
102 *1363:B *1361:A2 8.42232e-05
103 *1365:A1 *392:I 0.000111029
104 *1373:A1 *1361:A2 6.59223e-05
105 *1373:A2 *272:31 0.000292371
106 *1374:B1 *1361:A2 7.3227e-05
107 *1387:S *392:I 6.54978e-05
108 *1412:B2 *380:I 3.85646e-05
109 *1415:A2 *1346:A2 0.000183879
110 *1415:A2 *1349:A2 1.53123e-05
111 *1415:B *1349:A2 0.000103844
112 *1415:B *272:117 7.45328e-07
113 *1426:D *391:I 0
114 *1431:D *377:I 3.83835e-06
115 *1444:D *272:63 0.000305982
116 *1456:D *391:I 5.28872e-05
117 *1462:D *380:I 8.94407e-05
118 *1466:D *1346:A2 0.000114918
119 *1466:CLK *380:I 0.000108755
120 *1466:CLK *272:125 2.10565e-05
121 *1470:I *1361:A2 0
122 *1487:I *391:I 5.80708e-06
123 *1497:I *392:I 3.1291e-05
124 *1502:I *429:I 1.43674e-05
125 *1563:I *392:I 4.27107e-05
126 *1584:I *392:I 0.000269865
127 *4:30 *380:I 3.5555e-05
128 *94:37 *272:59 9.99188e-05
129 *94:54 *272:59 0.000208943
130 *109:24 *391:I 4.91966e-06
131 *124:16 *380:I 3.62916e-06
132 *131:12 *1349:A2 0.000289247
133 *131:12 *272:117 6.48034e-06
134 *144:25 *392:I 0.000126273
135 *168:10 *272:125 2.96621e-05
136 *170:55 *272:86 0.000186291
137 *172:57 *1355:A2 2.74661e-05
138 *172:57 *272:186 2.78073e-05
139 *205:25 *272:59 0.000598466
140 *208:21 *272:59 0
141 *208:69 *272:59 0
142 *208:85 *272:59 0
143 *208:107 *272:59 0.00024191
144 *208:301 *272:78 0
145 *230:41 *272:59 2.32427e-05
146 *231:10 *380:I 0.000201312
147 *239:47 *380:I 0.000359682
148 *244:39 *272:46 0.000102119
149 *246:14 *272:31 0.000279761
150 *248:71 *272:78 0.00267078
151 *248:71 *272:186 0.00037755
152 *254:12 *392:I 0.000441247
153 *265:42 *391:I 2.13518e-05
154 *265:42 *272:31 0
155 *267:18 *392:I 2.20986e-05
156 *268:31 *392:I 0.000111211
157 *268:31 *272:59 0.000449636
*RES
1 *1503:Z *272:4 4.5 
2 *272:4 *391:I 9.896 
3 *272:4 *272:31 7.616 
4 *272:31 *1361:A2 12.648 
5 *272:31 *272:46 2.28 
6 *272:46 *1358:A2 9 
7 *272:46 *272:59 13.148 
8 *272:59 *272:63 15.824 
9 *272:63 *429:I 14.26 
10 *272:63 *272:78 8.588 
11 *272:78 *272:86 9.76 
12 *272:86 *384:I 4.5 
13 *272:86 *272:97 6.476 
14 *272:97 *272:109 17.984 
15 *272:109 *272:117 4.408 
16 *272:117 *272:125 5.792 
17 *272:125 *380:I 14.32 
18 *272:125 *1346:A2 10.292 
19 *272:117 *1349:A2 14.944 
20 *272:109 *377:I 8.452 
21 *272:97 *1352:A2 9 
22 *272:78 *272:186 7.388 
23 *272:186 *1355:A2 19.216 
24 *272:186 *388:I 9 
25 *272:59 *392:I 29.476 
*END

*D_NET *273 0.01832
*CONN
*I *1374:A2 I *D gf180mcu_fd_sc_mcu7t5v0__aoi22_1
*I *1370:A2 I *D gf180mcu_fd_sc_mcu7t5v0__nand2_1
*I *1364:A2 I *D gf180mcu_fd_sc_mcu7t5v0__nand2_1
*I *1367:A2 I *D gf180mcu_fd_sc_mcu7t5v0__nand2_1
*I *1504:Z O *D gf180mcu_fd_sc_mcu7t5v0__dlyb_1
*CAP
1 *1374:A2 2.56747e-05
2 *1370:A2 0
3 *1364:A2 0.000574224
4 *1367:A2 0.000578212
5 *1504:Z 0.000332929
6 *273:61 0.00195704
7 *273:12 0.0020325
8 *273:10 0.000430075
9 *1367:A2 *1598:I 0
10 *1367:A2 *289:134 8.41027e-06
11 *273:10 *357:I 0.000138015
12 *273:10 *1256:I 2.6126e-05
13 *273:10 *289:118 4.01619e-05
14 *273:10 *289:122 0.000148555
15 *273:10 *289:134 0.000129649
16 *273:12 *289:134 1.14159e-05
17 *273:61 *349:I 1.2018e-05
18 *273:61 *1360:A1 8.0048e-05
19 *273:61 *1366:A1 7.30929e-05
20 *273:61 *280:48 0.000324845
21 *273:61 *281:29 7.23566e-05
22 *273:61 *289:134 3.38847e-05
23 dac_n[3] *1367:A2 2.63626e-06
24 dac_p[1] *1364:A2 0.000232673
25 dac_p[1] *273:61 1.36915e-05
26 dac_p[3] *273:61 0
27 dac_p[4] *273:61 0.000417725
28 dac_p[6] *1364:A2 0.000793686
29 dac_p[6] *273:61 6.58309e-05
30 dac_p[7] *1364:A2 0.000663265
31 *447:I *273:61 0.000360235
32 *1265:I *273:61 1.81333e-05
33 *1287:A2 *1367:A2 0.000171037
34 *1287:A2 *273:10 0.000378151
35 *1287:A2 *273:12 0.000212925
36 *1360:B *273:61 7.38988e-05
37 *1364:A1 *1364:A2 1.15275e-05
38 *1366:B *1364:A2 7.49908e-05
39 *1367:A1 *1367:A2 0.000255722
40 *1369:B *1367:A2 4.29636e-06
41 *1370:A1 *273:61 1.72118e-05
42 *1372:B *1364:A2 0.000154451
43 *1372:B *273:61 3.4671e-05
44 *1374:B1 *273:10 0.000700263
45 *1449:CLK *273:61 1.672e-05
46 *1451:D *273:61 0.000250717
47 *1451:CLK *273:61 1.5979e-05
48 *1452:CLK *273:10 4.02265e-05
49 *1564:I *1367:A2 0.0021233
50 *1564:I *273:61 0.000755121
51 *1566:I *1367:A2 0.00221348
52 *1579:I *273:61 2.88662e-05
53 *86:20 *273:61 7.89074e-07
54 *104:12 *273:10 0.000394385
55 *120:12 *1367:A2 7.48834e-05
56 *120:12 *273:61 0.000355199
57 *120:71 *1367:A2 5.91841e-05
58 *120:71 *273:10 0
59 *217:17 *273:61 0.000146053
60 *235:22 *1367:A2 8.02751e-06
61 *246:14 *273:61 0.000109514
62 *247:24 *273:61 3.08785e-05
63 *248:10 *1367:A2 2.86762e-07
64 *248:48 *1367:A2 1.01095e-05
*RES
1 *1504:Z *273:10 13.104 
2 *273:10 *273:12 0.608 
3 *273:12 *1367:A2 26.892 
4 *273:12 *273:61 34.736 
5 *273:61 *1364:A2 10.808 
6 *273:61 *1370:A2 4.5 
7 *273:10 *1374:A2 9.228 
*END

*D_NET *274 0.0410452
*CONN
*I *373:I I *D gf180mcu_fd_sc_mcu7t5v0__antenna
*I *1334:A2 I *D gf180mcu_fd_sc_mcu7t5v0__nand2_1
*I *1327:A2 I *D gf180mcu_fd_sc_mcu7t5v0__nand2_1
*I *371:I I *D gf180mcu_fd_sc_mcu7t5v0__antenna
*I *1286:A1 I *D gf180mcu_fd_sc_mcu7t5v0__nand2_1
*I *358:I I *D gf180mcu_fd_sc_mcu7t5v0__antenna
*I *375:I I *D gf180mcu_fd_sc_mcu7t5v0__antenna
*I *1339:A2 I *D gf180mcu_fd_sc_mcu7t5v0__nand2_1
*I *1331:A2 I *D gf180mcu_fd_sc_mcu7t5v0__nand2_1
*I *372:I I *D gf180mcu_fd_sc_mcu7t5v0__antenna
*I *431:I I *D gf180mcu_fd_sc_mcu7t5v0__antenna
*I *1405:A2 I *D gf180mcu_fd_sc_mcu7t5v0__oai21_1
*I *400:I I *D gf180mcu_fd_sc_mcu7t5v0__antenna
*I *1505:Z O *D gf180mcu_fd_sc_mcu7t5v0__dlyb_1
*CAP
1 *373:I 0.000165432
2 *1334:A2 0
3 *1327:A2 0.000813691
4 *371:I 0.000107659
5 *1286:A1 0
6 *358:I 0.000457226
7 *375:I 0
8 *1339:A2 0
9 *1331:A2 0
10 *372:I 0.000226502
11 *431:I 0.000199907
12 *1405:A2 0
13 *400:I 0.000266831
14 *1505:Z 0
15 *274:183 0.000333255
16 *274:159 0.00311019
17 *274:155 0.00372144
18 *274:114 0.000616009
19 *274:108 0.000342925
20 *274:97 0.000549521
21 *274:81 0.00184893
22 *274:66 0.000197091
23 *274:47 0.000905239
24 *274:34 0.000901471
25 *274:14 0.000609438
26 *274:4 0.000443751
27 *358:I *406:I 1.88647e-06
28 *358:I *1342:B 7.67081e-05
29 *358:I *276:192 3.24932e-05
30 *371:I *276:114 0.000255714
31 *372:I *276:192 0.000171657
32 *431:I *1290:A2 0
33 *431:I *280:72 6.11066e-05
34 *1327:A2 *1303:A1 0.00032508
35 *1327:A2 *1309:A2 4.58601e-06
36 *1327:A2 *285:51 0.000107133
37 *1327:A2 *289:25 7.88666e-05
38 *1327:A2 *289:38 9.71552e-05
39 *274:14 *1284:A1 7.23422e-05
40 *274:14 *1284:A2 0.000286962
41 *274:14 *1290:A2 4.14296e-05
42 *274:14 *1294:A1 8.09684e-06
43 *274:14 *1376:A2 2.98136e-05
44 *274:14 *1405:A1 0.00029807
45 *274:14 *287:20 7.7239e-06
46 *274:14 *293:22 9.17202e-06
47 *274:34 *1376:A2 0.000287708
48 *274:34 *287:20 5.29986e-06
49 *274:47 *1305:B 0.00132176
50 *274:47 *276:14 6.98069e-06
51 *274:47 *276:192 3.79206e-06
52 *274:47 *280:72 0.000114752
53 *274:47 *287:20 0.000332184
54 *274:66 *312:14 3.83835e-06
55 *274:81 *1331:A1 0.000117518
56 *274:81 *312:14 8.81341e-06
57 *274:97 *1339:A1 0.000250545
58 *274:97 *1371:C 0.000807687
59 *274:108 *1339:A1 9.34817e-05
60 *274:108 *1342:B 0.000143758
61 *274:155 *1331:A1 0.000199473
62 *274:155 *1368:C 0.00147511
63 *274:155 *1530:I 0
64 *274:155 *1531:I 1.27552e-05
65 *274:155 *337:43 0.000316179
66 *274:159 *355:I 1.92407e-05
67 *274:159 *406:I 0.000246185
68 *274:159 *1314:A1 3.36994e-05
69 *274:159 *1323:A1 2.6897e-05
70 *274:159 *1388:I1 7.83779e-05
71 *274:159 *1513:I 2.88187e-05
72 *274:159 *276:114 0.000166293
73 *274:159 *283:8 8.90932e-05
74 *274:159 *284:12 4.5884e-05
75 *274:159 *285:51 0.000948178
76 *274:159 *334:14 0.000801791
77 *274:159 *335:12 2.24437e-05
78 *274:183 *1530:I 4.36209e-05
79 dout[5] *373:I 0.000316486
80 *350:I *358:I 4.08987e-05
81 *350:I *274:114 6.48951e-05
82 *412:I *274:155 6.58016e-05
83 *424:I *274:159 1.12522e-05
84 *450:I *274:159 9.51101e-05
85 *1249:I *400:I 0.000761668
86 *1253:I *274:108 1.40605e-05
87 *1286:A2 *274:97 4.73582e-05
88 *1286:A2 *274:108 6.09735e-05
89 *1315:A2 *1327:A2 7.67669e-06
90 *1328:B *1327:A2 0.000181183
91 *1332:B *274:81 0.000399007
92 *1332:B *274:155 1.3575e-05
93 *1335:A2 *274:155 9.16609e-05
94 *1335:B *274:155 0.000159776
95 *1335:B *274:183 0
96 *1344:A1 *274:155 0.000181491
97 *1363:B *400:I 0.000483935
98 *1369:A2 *274:97 3.02222e-05
99 *1371:A1 *372:I 0.000184948
100 *1371:B *274:97 8.80994e-05
101 *1372:A2 *274:47 0.000202147
102 *1372:A2 *274:81 0.000435452
103 *1374:B2 *431:I 0.000413723
104 *1374:B2 *274:47 0.00081545
105 *1374:B2 *274:97 6.31119e-05
106 *1376:A1 *431:I 0.000194259
107 *1376:B *431:I 0.000137505
108 *1386:S *274:159 0
109 *1387:S *274:159 5.67749e-05
110 *1391:I0 *373:I 0
111 *1391:I0 *274:183 0
112 *1397:A2 *274:14 0.000165705
113 *1405:B *274:14 5.87561e-06
114 *1406:A2 *400:I 0.000456316
115 *1419:D *274:159 0.000110631
116 *1420:D *274:159 0.000470748
117 *1422:D *274:155 7.2904e-05
118 *1430:D *400:I 0.000294876
119 *1437:D *1327:A2 0
120 *1444:CLK *358:I 0.000355657
121 *1463:D *274:108 1.33342e-06
122 *1469:I *274:47 0.000528341
123 *1473:I *274:155 0.000317725
124 *1475:I *358:I 0.000110072
125 *1475:I *274:114 0
126 *1502:I *274:155 2.85617e-05
127 *1510:I *400:I 0
128 *1511:I *400:I 0.000188422
129 *1521:I *274:47 2.51673e-05
130 *1562:I *372:I 7.25774e-05
131 *1586:I *274:159 0.000144145
132 *1591:I *1327:A2 0.00304208
133 *1592:I *1327:A2 0
134 *97:14 *400:I 0.000126621
135 *101:16 *274:97 4.50449e-05
136 *105:14 *431:I 6.50326e-05
137 *120:71 *274:14 0.000181491
138 *159:41 *372:I 0.000165821
139 *159:41 *274:47 0.000234347
140 *159:41 *274:66 8.81341e-06
141 *159:41 *274:81 0.000129627
142 *170:30 *274:97 0.000820321
143 *170:30 *274:108 0
144 *208:249 *274:155 0.000198978
145 *208:251 *274:155 0.000168777
146 *232:56 *274:159 7.85062e-05
147 *241:111 *274:155 3.46377e-05
148 *257:8 *373:I 0
149 *266:20 *274:97 0.000536868
150 *266:20 *274:155 8.59272e-06
151 *269:65 *1327:A2 0.000216276
152 *270:37 *274:155 0.000181132
*RES
1 *1505:Z *274:4 4.5 
2 *274:4 *274:14 12.116 
3 *274:14 *400:I 17.832 
4 *274:14 *1405:A2 4.5 
5 *274:4 *274:34 5.336 
6 *274:34 *431:I 11.128 
7 *274:34 *274:47 7.828 
8 *274:47 *372:I 11.052 
9 *274:47 *274:66 4.956 
10 *274:66 *1331:A2 4.5 
11 *274:66 *274:81 6.628 
12 *274:81 *274:97 19.2 
13 *274:97 *1339:A2 4.5 
14 *274:97 *274:108 1.444 
15 *274:108 *274:114 9.836 
16 *274:114 *375:I 4.5 
17 *274:114 *358:I 16.616 
18 *274:108 *1286:A1 4.5 
19 *274:81 *274:155 12.008 
20 *274:155 *274:159 21.904 
21 *274:159 *371:I 5.412 
22 *274:159 *1327:A2 23.228 
23 *274:155 *274:183 1.14 
24 *274:183 *1334:A2 9 
25 *274:183 *373:I 10.52 
*END

*D_NET *275 0.0012632
*CONN
*I *1596:I I *D gf180mcu_fd_sc_mcu7t5v0__buf_2
*I *1383:A2 I *D gf180mcu_fd_sc_mcu7t5v0__nand3_1
*I *1458:Q O *D gf180mcu_fd_sc_mcu7t5v0__dffrnq_1
*CAP
1 *1596:I 0
2 *1383:A2 0.000392679
3 *1458:Q 0.000125915
4 *275:10 0.000518594
5 *1383:A2 *1552:I 8.81341e-06
6 *1383:A2 *1597:I 0
7 *1383:A2 *305:8 3.06453e-05
8 *1252:I *275:10 9.32751e-05
9 *1382:A1 *1383:A2 0
10 *4:30 *275:10 9.32751e-05
11 *111:28 *1383:A2 0
*RES
1 *1458:Q *275:10 14.792 
2 *275:10 *1383:A2 6.628 
3 *275:10 *1596:I 4.5 
*END

*D_NET *276 0.0552473
*CONN
*I *364:I I *D gf180mcu_fd_sc_mcu7t5v0__antenna
*I *369:I I *D gf180mcu_fd_sc_mcu7t5v0__antenna
*I *1323:A2 I *D gf180mcu_fd_sc_mcu7t5v0__nand2_1
*I *367:I I *D gf180mcu_fd_sc_mcu7t5v0__antenna
*I *1319:A2 I *D gf180mcu_fd_sc_mcu7t5v0__nand2_1
*I *432:I I *D gf180mcu_fd_sc_mcu7t5v0__antenna
*I *430:I I *D gf180mcu_fd_sc_mcu7t5v0__antenna
*I *1505:I I *D gf180mcu_fd_sc_mcu7t5v0__dlyb_1
*I *365:I I *D gf180mcu_fd_sc_mcu7t5v0__antenna
*I *1314:A2 I *D gf180mcu_fd_sc_mcu7t5v0__nand2_1
*I *366:I I *D gf180mcu_fd_sc_mcu7t5v0__antenna
*I *1309:A2 I *D gf180mcu_fd_sc_mcu7t5v0__nand2_1
*I *1304:A2 I *D gf180mcu_fd_sc_mcu7t5v0__nand2_1
*I *1506:Z O *D gf180mcu_fd_sc_mcu7t5v0__buf_2
*CAP
1 *364:I 0.000292637
2 *369:I 0.000256972
3 *1323:A2 0
4 *367:I 3.92271e-05
5 *1319:A2 0
6 *432:I 0
7 *430:I 0.000712286
8 *1505:I 6.92332e-05
9 *365:I 0
10 *1314:A2 0
11 *366:I 0.00225115
12 *1309:A2 0.000423342
13 *1304:A2 0.000565616
14 *1506:Z 4.80374e-05
15 *276:220 0.000290312
16 *276:216 0.000545501
17 *276:203 0.000697628
18 *276:192 0.00247344
19 *276:147 0.001171
20 *276:114 0.0030772
21 *276:91 0.0019418
22 *276:77 0.000780959
23 *276:46 0.00200666
24 *276:20 0.00210677
25 *276:14 0.000757496
26 *276:8 0.0024753
27 *364:I *401:I 4.66861e-05
28 *364:I *1393:S 0.00014484
29 *364:I *296:116 0.000149728
30 *366:I *404:I 4.47463e-05
31 *366:I *1420:RN 0
32 *366:I *1556:I 0.000104963
33 *366:I *285:51 0.000262996
34 *366:I *289:38 0
35 *366:I *289:53 0
36 *369:I *409:I 0
37 *369:I *1323:A1 0
38 *430:I *280:72 2.25986e-05
39 *1304:A2 *1304:A1 0.000780793
40 *1304:A2 *1598:I 0.000144132
41 *1309:A2 *1303:A1 1.59889e-05
42 *1505:I *1294:A1 7.83779e-05
43 *1505:I *287:33 7.48834e-05
44 *276:8 *312:14 2.23598e-06
45 *276:14 *1305:B 2.23853e-05
46 *276:14 *343:12 0.000366133
47 *276:20 *1405:A1 0.0003605
48 *276:20 *293:14 2.66741e-05
49 *276:46 *1258:I 3.74762e-06
50 *276:46 *1271:A1 5.52198e-05
51 *276:46 *290:151 3.42743e-05
52 *276:46 *308:22 1.22843e-05
53 *276:46 *340:37 3.34702e-05
54 *276:77 *1304:A1 9.09842e-05
55 *276:77 *285:57 0.00023832
56 *276:91 *410:I 0.000132619
57 *276:91 *285:57 0.000179742
58 *276:114 *289:38 2.20002e-05
59 *276:147 *1284:A1 8.88753e-05
60 *276:147 *1376:A2 3.6081e-05
61 *276:147 *1405:A1 9.31273e-05
62 *276:192 *406:I 0.000111962
63 *276:192 *1333:B 0.000362287
64 *276:192 *1463:RN 0
65 *276:192 *338:28 0.000303596
66 *276:203 *296:116 7.21792e-05
67 *276:216 *1393:S 2.97458e-05
68 *276:216 *296:116 8.51394e-05
69 *276:220 *409:I 0
70 *276:220 *1323:A1 9.88736e-06
71 dout[1] *366:I 0
72 dout_valid *276:114 7.52381e-06
73 eoc *276:91 1.67138e-05
74 *358:I *276:192 3.24932e-05
75 *371:I *276:114 0.000255714
76 *372:I *276:192 0.000171657
77 *418:I *276:203 0.000173843
78 *441:I *276:192 8.22473e-05
79 *1260:I *1304:A2 0.00017871
80 *1262:I *1304:A2 1.73164e-05
81 *1310:A2 *276:91 0.000222201
82 *1315:B *276:91 0.000537403
83 *1315:B *276:114 0.00383582
84 *1327:A2 *1309:A2 4.58601e-06
85 *1328:B *1309:A2 1.17512e-05
86 *1332:B *276:192 7.57013e-05
87 *1333:A1 *276:192 4.00965e-05
88 *1333:A2 *276:192 0.000337895
89 *1335:A2 *276:192 7.21976e-06
90 *1340:A1 *276:192 6.20551e-05
91 *1343:A2 *276:14 7.18125e-06
92 *1343:A2 *276:192 3.35106e-05
93 *1344:B *276:192 0.000102155
94 *1348:A2 *1304:A2 0.00205394
95 *1348:A2 *276:77 4.54969e-05
96 *1351:A2 *276:91 0.00132257
97 *1355:A1 *369:I 2.9378e-06
98 *1357:B *276:46 0.000298223
99 *1368:A1 *276:192 0.000114633
100 *1372:A2 *430:I 0.000132933
101 *1378:A2 *276:91 0.000215472
102 *1395:A2 *276:91 0.000243757
103 *1395:A2 *276:114 0.000672894
104 *1401:A2 *276:46 0.0013268
105 *1403:A1 *276:20 9.85317e-05
106 *1403:B *276:20 0.000634279
107 *1426:CLK *1304:A2 1.21336e-05
108 *1427:D *276:46 0.000727279
109 *1427:D *276:91 2.88168e-05
110 *1428:D *276:46 0.000773232
111 *1429:D *276:46 0.00029747
112 *1430:CLK *276:20 1.81267e-05
113 *1442:CLK *276:192 3.62081e-05
114 *1443:D *276:192 0.000201382
115 *1443:CLK *276:192 0.00110727
116 *1444:CLK *276:192 3.77916e-05
117 *1445:D *276:46 1.52772e-05
118 *1445:D *276:77 8.42573e-05
119 *1445:D *276:91 9.88736e-06
120 *1463:D *276:192 0
121 *1468:I *1309:A2 2.96621e-05
122 *1469:I *276:20 0.000149255
123 *1476:I *276:192 0
124 *1476:I *276:203 2.13077e-05
125 *1490:I *276:192 2.50854e-05
126 *1492:I *367:I 1.93526e-05
127 *1511:I *276:46 0.000147305
128 *1521:I *276:14 0.00055724
129 *1582:I *366:I 0.000324241
130 *1591:I *1309:A2 7.39242e-05
131 *1591:I *276:114 3.83835e-06
132 *1592:I *1309:A2 1.23313e-05
133 *1592:I *276:91 9.65112e-05
134 *7:28 *276:114 0.00021384
135 *109:24 *276:46 0.000197908
136 *110:14 *1505:I 8.25105e-05
137 *110:33 *1505:I 7.29871e-06
138 *110:33 *276:147 4.59151e-05
139 *120:71 *1505:I 6.03815e-06
140 *120:71 *276:147 1.11677e-06
141 *123:16 *276:20 4.01696e-05
142 *123:16 *276:46 0.000351738
143 *136:32 *276:91 0.000223476
144 *146:36 *276:203 5.4345e-05
145 *159:41 *276:8 6.07666e-06
146 *208:11 *276:14 0.00040695
147 *208:11 *276:20 3.59169e-05
148 *208:15 *276:20 5.69231e-05
149 *208:15 *276:147 0.000120726
150 *208:19 *276:46 0.000286329
151 *219:18 *276:46 5.28994e-05
152 *229:83 *276:192 4.02968e-05
153 *229:94 *276:192 0.000135502
154 *231:22 *276:20 0.000190286
155 *241:111 *364:I 0.000193933
156 *243:79 *367:I 1.08266e-05
157 *243:79 *369:I 5.49909e-05
158 *243:79 *276:203 0.000175692
159 *243:79 *276:216 6.80599e-05
160 *243:79 *276:220 1.52768e-05
161 *254:12 *366:I 0.00110906
162 *261:8 *276:91 7.72375e-05
163 *269:10 *276:46 0.0020821
164 *269:10 *276:77 3.66997e-06
165 *269:44 *276:91 0.00240362
166 *269:65 *276:91 0
167 *270:16 *276:192 4.56565e-05
168 *270:37 *276:192 0.000461634
169 *274:47 *276:14 6.98069e-06
170 *274:47 *276:192 3.79206e-06
171 *274:159 *276:114 0.000166293
*RES
1 *1506:Z *276:8 9.228 
2 *276:8 *276:14 8.148 
3 *276:14 *276:20 8.452 
4 *276:20 *276:46 42.58 
5 *276:46 *1304:A2 25.524 
6 *276:46 *276:77 5.716 
7 *276:77 *276:91 24.748 
8 *276:91 *1309:A2 19.748 
9 *276:91 *276:114 15.14 
10 *276:114 *366:I 28.624 
11 *276:114 *1314:A2 4.5 
12 *276:77 *365:I 4.5 
13 *276:20 *276:147 2.888 
14 *276:147 *1505:I 9.608 
15 *276:147 *430:I 20.584 
16 *276:14 *432:I 4.5 
17 *276:8 *276:192 20.764 
18 *276:192 *1319:A2 4.5 
19 *276:192 *276:203 7.692 
20 *276:203 *367:I 9.228 
21 *276:203 *276:216 1.368 
22 *276:216 *276:220 4.728 
23 *276:220 *1323:A2 4.5 
24 *276:220 *369:I 5.868 
25 *276:216 *364:I 11.28 
*END

*D_NET *277 0.0124905
*CONN
*I *1303:A1 I *D gf180mcu_fd_sc_mcu7t5v0__aoi21_1
*I *1347:A1 I *D gf180mcu_fd_sc_mcu7t5v0__aoi211_2
*I *1312:A3 I *D gf180mcu_fd_sc_mcu7t5v0__and3_1
*I *1318:A1 I *D gf180mcu_fd_sc_mcu7t5v0__aoi21_1
*I *1307:A3 I *D gf180mcu_fd_sc_mcu7t5v0__and3_1
*I *1353:B2 I *D gf180mcu_fd_sc_mcu7t5v0__aoi221_2
*I *1507:Z O *D gf180mcu_fd_sc_mcu7t5v0__dlyb_1
*CAP
1 *1303:A1 0.000353823
2 *1347:A1 0.00013503
3 *1312:A3 3.62121e-06
4 *1318:A1 0.000328369
5 *1307:A3 0
6 *1353:B2 0.000799076
7 *1507:Z 0.000121198
8 *277:63 0.00128793
9 *277:27 0.000369417
10 *277:18 0.000111007
11 *277:12 0.000194778
12 *1303:A1 *1303:B 7.15613e-05
13 *1312:A3 *1312:A2 8.55327e-05
14 *1318:A1 *289:14 0
15 *277:18 *1312:A2 0.000351928
16 *277:63 *1312:A2 0.000432827
17 *353:I *277:63 2.32267e-05
18 *1303:A2 *1303:A1 1.55387e-05
19 *1306:A1 *1303:A1 7.83779e-05
20 *1307:A2 *1318:A1 6.35236e-05
21 *1307:A2 *277:18 0.000355803
22 *1307:A2 *277:27 0.000510835
23 *1309:A2 *1303:A1 1.59889e-05
24 *1315:A2 *1303:A1 2.73162e-05
25 *1315:B *1303:A1 1.47743e-05
26 *1320:A2 *1318:A1 3.16765e-06
27 *1324:A2 *1318:A1 0.000653897
28 *1327:A2 *1303:A1 0.00032508
29 *1328:B *277:63 3.49423e-05
30 *1347:B *1347:A1 1.53696e-05
31 *1347:B *277:63 0
32 *1353:B1 *1318:A1 9.52854e-05
33 *1353:B1 *277:18 0.000348942
34 *1353:B1 *277:27 0.000537422
35 *1357:A2 *277:12 0.000134113
36 *1360:A2 *277:12 0.000496509
37 *1437:D *277:63 0.000926745
38 *1437:CLK *277:63 0.000353934
39 *1591:I *1303:A1 2.88104e-05
40 *1592:I *1303:A1 0.000140663
41 *1592:I *1347:A1 0.000269496
42 *1592:I *277:63 7.98438e-05
43 *132:12 *1318:A1 6.57525e-05
44 *143:14 *1318:A1 0.000238087
45 *219:10 *277:63 0
46 *230:41 *1312:A3 5.94067e-05
47 *230:41 *277:18 0.000358923
48 *261:8 *1303:A1 1.60289e-05
49 *269:44 *1347:A1 9.34379e-05
50 *269:65 *1303:A1 0.00146313
51 *272:59 *277:12 0
*RES
1 *1507:Z *277:12 15.02 
2 *277:12 *277:18 6.476 
3 *277:18 *1353:B2 9 
4 *277:18 *277:27 1.444 
5 *277:27 *1307:A3 9 
6 *277:27 *1318:A1 12.116 
7 *277:12 *1312:A3 4.728 
8 *1353:B2 *277:63 15.46 
9 *277:63 *1347:A1 10.52 
10 *277:63 *1303:A1 14.016 
*END

*D_NET *278 0.000876511
*CONN
*I *1356:A1 I *D gf180mcu_fd_sc_mcu7t5v0__aoi221_2
*I *1546:Z O *D gf180mcu_fd_sc_mcu7t5v0__dlyb_1
*CAP
1 *1356:A1 8.37415e-05
2 *1546:Z 8.37415e-05
3 *94:54 *1356:A1 0.000119294
4 *230:41 *1356:A1 7.83779e-05
5 *243:67 *1356:A1 7.83779e-05
6 *272:59 *1356:A1 0.000432977
*RES
1 *1546:Z *1356:A1 19.368 
*END

*D_NET *279 0.00610015
*CONN
*I *1542:I I *D gf180mcu_fd_sc_mcu7t5v0__buf_2
*I *1290:A1 I *D gf180mcu_fd_sc_mcu7t5v0__nor2_1
*I *1508:Z O *D gf180mcu_fd_sc_mcu7t5v0__buf_2
*CAP
1 *1542:I 0.000549276
2 *1290:A1 0.000532941
3 *1508:Z 0.000334189
4 *279:10 0.00141641
5 *1290:A1 *298:14 0.00138039
6 *1542:I *1465:RN 7.11102e-06
7 *279:10 *1548:I 3.73535e-05
8 *1280:A3 *1542:I 0.000331177
9 *1369:A2 *1290:A1 0.000148104
10 *1376:A1 *1542:I 0
11 *1376:A1 *279:10 0
12 *1377:A1 *1542:I 1.92141e-05
13 *1377:A2 *1542:I 3.78032e-05
14 *1377:A3 *279:10 0.000350435
15 *1382:A1 *1542:I 4.14296e-05
16 *1383:A3 *1542:I 2.23598e-06
17 *1383:A3 *279:10 3.90013e-05
18 *1407:A1 *279:10 6.50714e-05
19 *1455:D *1290:A1 5.39846e-05
20 *1571:I *1290:A1 8.39112e-05
21 *122:20 *1290:A1 8.94407e-05
22 *126:14 *1542:I 0.000433454
23 *248:65 *1290:A1 0.000147223
*RES
1 *1508:Z *279:10 7.008 
2 *279:10 *1290:A1 18.516 
3 *279:10 *1542:I 8.756 
*END

*D_NET *280 0.0261263
*CONN
*I *1273:A1 I *D gf180mcu_fd_sc_mcu7t5v0__nor2_1
*I *1292:B2 I *D gf180mcu_fd_sc_mcu7t5v0__oai22_4
*I *1369:A1 I *D gf180mcu_fd_sc_mcu7t5v0__oai21_1
*I *1372:A1 I *D gf180mcu_fd_sc_mcu7t5v0__oai21_1
*I *1366:A1 I *D gf180mcu_fd_sc_mcu7t5v0__oai21_1
*I *1373:B I *D gf180mcu_fd_sc_mcu7t5v0__aoi21_1
*I *1509:Z O *D gf180mcu_fd_sc_mcu7t5v0__buf_2
*CAP
1 *1273:A1 0.00101896
2 *1292:B2 6.32869e-05
3 *1369:A1 0.000135787
4 *1372:A1 0
5 *1366:A1 0.000168881
6 *1373:B 0.000879365
7 *1509:Z 0.000223367
8 *280:72 0.00209974
9 *280:52 0.000157467
10 *280:48 0.00177307
11 *280:31 0.00209623
12 *280:10 0.00229619
13 *1273:A1 *1255:I 3.47209e-05
14 *1273:A1 *1296:A1 0.000101339
15 *1273:A1 *1375:A1 7.47441e-05
16 *1273:A1 *1408:A2 0.000132067
17 *1273:A1 *1516:I 0.000533181
18 *1273:A1 *1601:I 2.58957e-05
19 *1369:A1 *1379:A1 2.28606e-05
20 *1373:B *1549:I 2.23385e-05
21 *1373:B *298:14 0
22 *280:10 *1270:A2 0.000689725
23 *280:10 *290:129 0.00199021
24 *280:10 *291:79 0.00168174
25 *280:10 *292:47 3.16375e-05
26 *280:31 *1363:A1 3.02427e-05
27 *280:31 *298:14 0
28 *280:48 *1287:A1 1.19441e-05
29 *280:48 *296:36 0.000711402
30 *280:48 *304:12 7.90878e-06
31 *280:72 *1287:A1 2.13185e-05
32 *280:72 *1345:A1 2.57255e-05
33 *280:72 *304:12 0.000253759
34 *430:I *280:72 2.25986e-05
35 *431:I *280:72 6.11066e-05
36 *1265:I *1366:A1 5.18232e-05
37 *1265:I *280:31 0
38 *1272:A4 *280:10 0.000108934
39 *1273:A2 *1273:A1 0.000390764
40 *1278:A2 *1273:A1 7.48834e-05
41 *1292:B1 *1273:A1 5.26975e-06
42 *1292:B1 *1292:B2 4.90368e-05
43 *1296:A2 *1273:A1 2.6126e-05
44 *1357:A2 *1373:B 1.76471e-05
45 *1363:B *280:31 4.37699e-05
46 *1366:A2 *1366:A1 2.5671e-05
47 *1366:A2 *280:31 9.54345e-05
48 *1372:A2 *280:72 0.000346094
49 *1374:A1 *280:48 8.36666e-05
50 *1375:A2 *1273:A1 0.000132439
51 *1376:B *280:72 0.000268627
52 *1400:B2 *280:10 1.45899e-05
53 *1407:B1 *1273:A1 0.000580138
54 *1452:D *1369:A1 1.42449e-05
55 *1453:D *1369:A1 2.6126e-05
56 *1453:D *280:52 0.000186796
57 *1453:D *280:72 0.000200586
58 *1454:CLK *280:31 6.42152e-05
59 *1469:I *280:72 0.000113147
60 *1470:I *1373:B 1.90594e-05
61 *1504:I *280:72 0.000982518
62 *1564:I *1366:A1 4.36713e-05
63 *86:20 *280:48 0.000688883
64 *108:14 *280:31 5.20172e-05
65 *110:37 *280:72 0.000302823
66 *120:12 *280:48 0
67 *122:20 *1369:A1 0.000505463
68 *122:20 *280:52 0.000186796
69 *123:16 *1292:B2 4.14908e-05
70 *206:22 *280:10 0.000357912
71 *206:22 *280:31 3.72321e-05
72 *218:8 *280:31 0.000110416
73 *231:16 *1273:A1 0.00116878
74 *231:22 *1273:A1 0.000271822
75 *231:22 *1292:B2 0.000194455
76 *233:22 *280:31 0.00011588
77 *244:39 *1373:B 9.42959e-05
78 *272:46 *1373:B 0.000121255
79 *273:61 *1366:A1 7.30929e-05
80 *273:61 *280:48 0.000324845
81 *274:47 *280:72 0.000114752
*RES
1 *1509:Z *280:10 20.264 
2 *280:10 *1373:B 17.072 
3 *280:10 *280:31 10.732 
4 *280:31 *1366:A1 10.14 
5 *280:31 *280:48 15.232 
6 *280:48 *280:52 5.032 
7 *280:52 *1372:A1 4.5 
8 *280:52 *1369:A1 5.944 
9 *280:48 *280:72 13.696 
10 *280:72 *1292:B2 5.26 
11 *280:72 *1273:A1 32.228 
*END

*D_NET *281 0.0111932
*CONN
*I *1363:A1 I *D gf180mcu_fd_sc_mcu7t5v0__oai21_1
*I *1357:A1 I *D gf180mcu_fd_sc_mcu7t5v0__oai21_1
*I *1351:A1 I *D gf180mcu_fd_sc_mcu7t5v0__oai21_1
*I *1354:A1 I *D gf180mcu_fd_sc_mcu7t5v0__oai21_1
*I *1348:A1 I *D gf180mcu_fd_sc_mcu7t5v0__oai21_1
*I *1360:A1 I *D gf180mcu_fd_sc_mcu7t5v0__oai21_1
*I *1510:Z O *D gf180mcu_fd_sc_mcu7t5v0__dlyb_1
*CAP
1 *1363:A1 0.000132544
2 *1357:A1 2.02697e-05
3 *1351:A1 0
4 *1354:A1 0
5 *1348:A1 0.000134444
6 *1360:A1 0.000109145
7 *1510:Z 0.000282449
8 *281:43 0.000243034
9 *281:35 0.00031266
10 *281:29 0.000630003
11 *281:10 0.000664715
12 *1348:A1 *403:I 0
13 *1348:A1 *1598:I 1.06347e-05
14 *1348:A1 *296:46 0.000100193
15 *1363:A1 *296:46 0.000228928
16 *281:10 *1379:A1 0.00149372
17 *281:10 *1598:I 0.0015017
18 *281:29 *1379:A1 0.000132786
19 *281:29 *296:46 0
20 dac_p[1] *1360:A1 9.97113e-05
21 dac_p[1] *281:10 6.65506e-05
22 dac_p[4] *281:29 0.000318181
23 dac_p[4] *281:35 0.000144467
24 *1262:I *281:43 0.000623573
25 *1357:A2 *281:29 4.10802e-05
26 *1360:A2 *281:29 0.000417581
27 *1364:A1 *281:43 5.76749e-06
28 *1366:A2 *1363:A1 0.000177978
29 *1372:B *281:29 0.000586286
30 *1446:D *281:35 9.26705e-05
31 *1446:D *281:43 0.000174731
32 *1448:D *1357:A1 1.38099e-05
33 *1448:D *281:29 0.000355532
34 *1448:CLK *281:35 1.2018e-05
35 *1448:CLK *281:43 0
36 *1449:CLK *1360:A1 5.02848e-05
37 *1449:CLK *281:29 0
38 *1450:D *1363:A1 0.000640407
39 *1454:D *1363:A1 0.000321412
40 *1456:D *281:29 0.000276042
41 *1575:I *281:29 1.38099e-05
42 *1575:I *281:35 0.000162943
43 *168:28 *281:35 0.000111861
44 *168:28 *281:43 1.02578e-05
45 *229:22 *281:35 6.50663e-05
46 *229:22 *281:43 2.22758e-05
47 *246:14 *1360:A1 0.000119807
48 *246:14 *281:10 7.43011e-05
49 *265:42 *1363:A1 0
50 *265:42 *281:35 1.49019e-05
51 *273:61 *1360:A1 8.0048e-05
52 *273:61 *281:29 7.23566e-05
53 *280:31 *1363:A1 3.02427e-05
*RES
1 *1510:Z *281:10 13.56 
2 *281:10 *1360:A1 10.216 
3 *281:10 *281:29 9.744 
4 *281:29 *281:35 2.508 
5 *281:35 *281:43 10.824 
6 *281:43 *1348:A1 5.412 
7 *281:43 *1354:A1 4.5 
8 *281:35 *1351:A1 4.5 
9 *281:29 *1357:A1 4.728 
10 *1510:Z *1363:A1 20.28 
*END

*D_NET *282 0.0064132
*CONN
*I *1401:C I *D gf180mcu_fd_sc_mcu7t5v0__aoi211_1
*I *1509:I I *D gf180mcu_fd_sc_mcu7t5v0__buf_2
*I *1407:B2 I *D gf180mcu_fd_sc_mcu7t5v0__oai221_4
*I *1511:Z O *D gf180mcu_fd_sc_mcu7t5v0__dlyb_1
*CAP
1 *1401:C 0
2 *1509:I 0.000510991
3 *1407:B2 0.00114083
4 *1511:Z 0
5 *282:29 0.000726086
6 *282:4 0.00135592
7 *1407:B2 *1376:A2 2.9378e-06
8 *1407:B2 *287:10 1.46905e-05
9 *1407:B2 *293:54 0.00013347
10 *1407:B2 *343:27 0.000462312
11 *1509:I *1429:RN 0.000234057
12 *1509:I *302:10 8.15645e-05
13 *1509:I *302:18 0.00059029
14 *282:29 *293:54 1.95729e-05
15 *1273:A2 *1407:B2 0
16 *1369:A2 *1407:B2 8.66181e-05
17 *1374:B2 *1407:B2 0.000294367
18 *1402:A3 *1407:B2 4.01733e-06
19 *1402:A3 *282:29 7.64131e-05
20 *1403:A1 *1407:B2 2.49331e-05
21 *1407:A1 *1407:B2 0.000132933
22 *1430:D *1509:I 2.6126e-05
23 *1430:CLK *1407:B2 2.69756e-05
24 *1430:CLK *1509:I 7.45328e-07
25 *1430:CLK *282:29 5.70624e-05
26 *97:14 *1509:I 0.000268176
27 *108:27 *282:29 4.23892e-05
28 *110:33 *1407:B2 0
29 *123:16 *1407:B2 2.13442e-05
30 *196:10 *1407:B2 7.83779e-05
*RES
1 *1511:Z *282:4 4.5 
2 *282:4 *1407:B2 28.58 
3 *282:4 *282:29 1.52 
4 *282:29 *1509:I 17.452 
5 *282:29 *1401:C 4.5 
*END

*D_NET *283 0.00900195
*CONN
*I *1543:I I *D gf180mcu_fd_sc_mcu7t5v0__buf_2
*I *1390:S I *D gf180mcu_fd_sc_mcu7t5v0__mux2_2
*I *1512:Z O *D gf180mcu_fd_sc_mcu7t5v0__buf_2
*CAP
1 *1543:I 0
2 *1390:S 0.000378265
3 *1512:Z 0.000739961
4 *283:8 0.00111823
5 *1390:S *1557:I 2.89481e-05
6 *283:8 *1334:A1 0.000706228
7 *283:8 *1512:I 0.000148642
8 *283:8 *1530:I 0.000528596
9 *283:8 *323:18 0
10 dout[5] *283:8 3.89716e-05
11 *450:I *1390:S 4.36513e-05
12 *1335:B *283:8 0.000317494
13 *1390:I0 *1390:S 0.00263152
14 *1421:D *1390:S 9.29918e-05
15 *1441:D *1390:S 0.00202865
16 *1586:I *283:8 4.94613e-05
17 *256:10 *1390:S 6.12449e-05
18 *274:159 *283:8 8.90932e-05
*RES
1 *1512:Z *283:8 11.036 
2 *283:8 *1390:S 21.176 
3 *283:8 *1543:I 4.5 
*END

*D_NET *284 0.012576
*CONN
*I *1391:S I *D gf180mcu_fd_sc_mcu7t5v0__mux2_2
*I *1393:S I *D gf180mcu_fd_sc_mcu7t5v0__mux2_2
*I *1394:S I *D gf180mcu_fd_sc_mcu7t5v0__mux2_2
*I *1392:S I *D gf180mcu_fd_sc_mcu7t5v0__mux2_2
*I *1513:Z O *D gf180mcu_fd_sc_mcu7t5v0__dlyb_1
*CAP
1 *1391:S 2.28176e-05
2 *1393:S 0.00124759
3 *1394:S 0
4 *1392:S 0
5 *1513:Z 0.000528381
6 *284:31 0.00144961
7 *284:24 0.00165283
8 *284:12 0.002002
9 *1391:S *1391:I1 1.19438e-05
10 *1391:S *1531:I 7.83779e-05
11 *1393:S *401:I 0
12 *1393:S *1323:A1 9.37296e-06
13 *1393:S *1394:I1 1.59264e-05
14 *1393:S *1533:I 0.000326535
15 *1393:S *1560:I 0.000356897
16 *1393:S *324:23 9.56415e-05
17 *284:12 *355:I 0.000739511
18 *284:12 *1530:I 0.000136472
19 *284:12 *318:10 0.000227661
20 *284:24 *337:43 0.000456851
21 *284:31 *1394:I1 2.9378e-06
22 *351:I *1393:S 4.97386e-06
23 *364:I *1393:S 0.00014484
24 *441:I *284:12 0.00154438
25 *450:I *284:12 6.68265e-05
26 *1391:I0 *284:12 0.000414508
27 *1392:I0 *284:24 4.58601e-06
28 *1392:I0 *284:31 2.34098e-05
29 *1393:I0 *1393:S 2.37298e-05
30 *1394:I0 *1393:S 2.01323e-05
31 *1394:I0 *284:31 3.77822e-05
32 *1422:D *284:12 1.40744e-05
33 *1424:D *1393:S 2.39931e-06
34 *1424:CLK *1393:S 0
35 *1425:D *284:24 7.97597e-05
36 *1425:D *284:31 0
37 *1442:D *284:24 2.48239e-05
38 *1463:D *1393:S 0
39 *1492:I *1393:S 5.14116e-06
40 *1589:I *1393:S 1.5015e-05
41 *146:36 *1393:S 0.000131451
42 *146:36 *284:24 8.38944e-05
43 *146:36 *284:31 4.0769e-05
44 *215:8 *1393:S 0.000366675
45 *243:79 *1393:S 1.5961e-05
46 *248:89 *284:24 7.39173e-05
47 *274:159 *284:12 4.5884e-05
48 *276:216 *1393:S 2.97458e-05
*RES
1 *1513:Z *284:12 15.612 
2 *284:12 *284:24 20.112 
3 *284:24 *1392:S 4.5 
4 *284:24 *284:31 1.292 
5 *284:31 *1394:S 4.5 
6 *284:31 *1393:S 22.24 
7 *284:12 *1391:S 9.228 
*END

*D_NET *285 0.0320307
*CONN
*I *1512:I I *D gf180mcu_fd_sc_mcu7t5v0__buf_2
*I *433:I I *D gf180mcu_fd_sc_mcu7t5v0__antenna
*I *435:I I *D gf180mcu_fd_sc_mcu7t5v0__antenna
*I *434:I I *D gf180mcu_fd_sc_mcu7t5v0__antenna
*I *1513:I I *D gf180mcu_fd_sc_mcu7t5v0__dlyb_1
*I *1467:D I *D gf180mcu_fd_sc_mcu7t5v0__dffrnq_1
*I *1291:A1 I *D gf180mcu_fd_sc_mcu7t5v0__or2_1
*I *410:I I *D gf180mcu_fd_sc_mcu7t5v0__antenna
*I *361:I I *D gf180mcu_fd_sc_mcu7t5v0__antenna
*I *1514:Z O *D gf180mcu_fd_sc_mcu7t5v0__dlyb_1
*CAP
1 *1512:I 0.000179862
2 *433:I 0.000179228
3 *435:I 0
4 *434:I 0
5 *1513:I 5.96518e-05
6 *1467:D 5.24234e-05
7 *1291:A1 0.00029155
8 *410:I 4.31126e-05
9 *361:I 0.000311063
10 *1514:Z 0
11 *285:104 0.000218232
12 *285:57 0.000560864
13 *285:51 0.00266906
14 *285:33 0.00268782
15 *285:27 0.00114831
16 *285:21 0.00109536
17 *285:6 0.000456853
18 *285:4 0.000179862
19 *361:I *1334:A1 0.000865649
20 *361:I *1514:I 0.000202441
21 *361:I *1532:I 0.00170082
22 *361:I *338:12 7.88867e-05
23 *1512:I *1334:A1 1.3758e-05
24 *1512:I *1532:I 0.000148585
25 *1512:I *326:27 0.000565919
26 *1513:I *1530:I 0.000191711
27 *285:21 *1532:I 0.000120187
28 *285:27 *1557:I 8.55242e-05
29 *285:27 *1559:I 0.000144235
30 *285:27 *323:16 0.000117556
31 *285:27 *323:18 0.000364602
32 *285:33 *1440:RN 1.99784e-05
33 *285:51 *1304:A1 0.000547096
34 *285:51 *1385:I1 6.7497e-05
35 *285:51 *1388:I1 2.96621e-05
36 *285:51 *1435:RN 0.00189049
37 *285:51 *1530:I 0.000231581
38 *285:51 *1555:I 0
39 *285:51 *289:38 0
40 *285:51 *314:6 0.000410165
41 *285:51 *314:16 0.000132086
42 *285:51 *330:10 0.000422422
43 *285:51 *330:30 8.28977e-05
44 *285:51 *334:14 0.000361945
45 *285:57 *1304:A1 0.000121667
46 dout[1] *285:51 8.32046e-06
47 dout[3] *285:51 1.66121e-06
48 dout[4] *285:27 2.88193e-05
49 dout[4] *285:33 0.000103026
50 dout[5] *285:27 1.36289e-05
51 *366:I *285:51 0.000262996
52 *441:I *433:I 3.68998e-05
53 *441:I *285:27 0
54 *1291:A2 *1291:A1 1.55629e-05
55 *1310:A1 *1291:A1 0.000418831
56 *1310:A2 *410:I 1.37014e-05
57 *1310:A2 *285:57 8.13942e-07
58 *1310:B *1291:A1 1.32067e-05
59 *1310:B *285:51 0.000740433
60 *1324:B *361:I 1.23559e-05
61 *1327:A2 *285:51 0.000107133
62 *1347:A2 *285:51 0.000865346
63 *1348:A2 *285:51 0.00223154
64 *1348:A2 *285:57 0.000580119
65 *1351:A2 *1291:A1 0.000877171
66 *1385:I0 *285:51 0
67 *1391:I0 *285:21 1.90639e-05
68 *1398:I1 *1467:D 2.293e-05
69 *1398:S *1467:D 6.56754e-05
70 *1445:D *1291:A1 5.16238e-05
71 *1582:I *285:51 0.000451146
72 *1583:I *285:51 0.000222279
73 *1584:I *285:51 0.000794212
74 *1586:I *1513:I 0.00025334
75 *1587:I *433:I 0.000371827
76 *1587:I *285:27 0.000247117
77 *1591:I *285:51 0.000940437
78 *146:36 *361:I 0.000288036
79 *212:13 *361:I 1.34164e-05
80 *232:16 *285:51 0.000576885
81 *232:18 *285:51 0.000207056
82 *256:10 *285:27 3.56266e-05
83 *257:8 *285:21 1.28891e-05
84 *260:12 *433:I 0.00026286
85 *269:10 *285:57 5.43993e-05
86 *269:29 *1291:A1 8.13676e-05
87 *274:159 *1513:I 2.88187e-05
88 *274:159 *285:51 0.000948178
89 *276:77 *285:57 0.00023832
90 *276:91 *410:I 0.000132619
91 *276:91 *285:57 0.000179742
92 *283:8 *1512:I 0.000148642
*RES
1 *1514:Z *285:4 4.5 
2 *285:4 *285:6 4.5 
3 *285:6 *361:I 14.32 
4 *285:6 *285:21 5.336 
5 *285:21 *285:27 6.764 
6 *285:27 *285:33 10.596 
7 *285:33 *285:51 36.268 
8 *285:51 *285:57 7.084 
9 *285:57 *410:I 4.88 
10 *285:57 *1291:A1 16.844 
11 *285:51 *1467:D 9.38 
12 *285:33 *1513:I 5.64 
13 *285:27 *434:I 4.5 
14 *285:21 *285:104 0.228 
15 *285:104 *435:I 4.5 
16 *285:104 *433:I 6.704 
17 *285:4 *1512:I 6.856 
*END

*D_NET *286 0.00353042
*CONN
*I *1597:I I *D gf180mcu_fd_sc_mcu7t5v0__buf_2
*I *1381:A2 I *D gf180mcu_fd_sc_mcu7t5v0__nor3_1
*I *1457:Q O *D gf180mcu_fd_sc_mcu7t5v0__dffsnq_1
*CAP
1 *1597:I 0.000543584
2 *1381:A2 0.000595079
3 *1457:Q 0
4 *286:4 0.00113866
5 *1381:A2 *1526:I 8.11578e-05
6 *1381:A2 *296:10 4.64453e-05
7 *1381:A2 *296:116 0.000103214
8 *1597:I *1457:SETN 0
9 *1597:I *1552:I 1.3758e-05
10 *1597:I *305:8 8.3518e-05
11 cmp_clk *1597:I 6.68164e-05
12 *1252:I *1381:A2 7.23781e-06
13 *1289:A2 *1381:A2 0.000303713
14 *1383:A2 *1597:I 0
15 *1458:D *1381:A2 0.000118131
16 *4:30 *1597:I 1.91917e-06
17 *100:16 *1381:A2 0.000427183
*RES
1 *1457:Q *286:4 4.5 
2 *286:4 *1381:A2 18.06 
3 *286:4 *1597:I 7.616 
*END

*D_NET *287 0.016124
*CONN
*I *1305:B I *D gf180mcu_fd_sc_mcu7t5v0__oai21_1
*I *1256:I I *D gf180mcu_fd_sc_mcu7t5v0__clkinv_1
*I *1345:A1 I *D gf180mcu_fd_sc_mcu7t5v0__nor2_1
*I *1287:A1 I *D gf180mcu_fd_sc_mcu7t5v0__nand2_1
*I *1295:A1 I *D gf180mcu_fd_sc_mcu7t5v0__or2_1
*I *1294:A1 I *D gf180mcu_fd_sc_mcu7t5v0__nor2_2
*I *1515:Z O *D gf180mcu_fd_sc_mcu7t5v0__dlyb_1
*CAP
1 *1305:B 0.000475453
2 *1256:I 0.000289207
3 *1345:A1 0.00021009
4 *1287:A1 0.000384342
5 *1295:A1 0
6 *1294:A1 0.00010269
7 *1515:Z 0.000121383
8 *287:46 0.000636398
9 *287:44 0.000484417
10 *287:33 0.000388963
11 *287:20 0.000836345
12 *287:10 0.00109477
13 *1256:I *1551:I 0.000524615
14 *1256:I *305:12 0.000123418
15 *1287:A1 *363:I 0.000426864
16 *1287:A1 *304:12 2.11153e-05
17 *1305:B *1331:A1 0
18 *1305:B *343:12 0.000173395
19 *1345:A1 *304:12 6.817e-05
20 *287:20 *1376:A2 2.4127e-05
21 *287:20 *1515:I 9.41542e-05
22 *287:20 *343:12 8.03145e-05
23 *287:33 *1294:A2 2.80876e-06
24 *287:33 *289:116 2.85217e-05
25 *287:44 *1548:I 0.000399908
26 *287:44 *289:116 0.000138015
27 *1287:A2 *1287:A1 4.94864e-07
28 *1287:A2 *287:33 9.74926e-05
29 *1349:A1 *1305:B 0.000528909
30 *1372:B *1287:A1 0.000171072
31 *1374:A1 *1287:A1 6.34602e-05
32 *1374:B2 *1287:A1 0.000331866
33 *1374:B2 *287:20 0.00113918
34 *1374:B2 *287:44 0.00049982
35 *1374:B2 *287:46 0.00038404
36 *1376:B *1287:A1 7.39173e-05
37 *1376:B *287:44 0.000524722
38 *1376:B *287:46 0.000405436
39 *1383:A3 *287:33 4.25319e-05
40 *1397:A2 *1294:A1 0.000149837
41 *1407:B2 *287:10 1.46905e-05
42 *1430:CLK *287:10 0.00024426
43 *1452:D *1345:A1 7.59255e-06
44 *1452:CLK *1256:I 2.96621e-05
45 *1453:D *1287:A1 0.00048678
46 *1502:I *1305:B 1.26143e-05
47 *1505:I *1294:A1 7.83779e-05
48 *1505:I *287:33 7.48834e-05
49 *1521:I *1305:B 6.25443e-05
50 *104:12 *1256:I 0.000619186
51 *105:14 *287:20 5.93886e-06
52 *105:14 *287:44 1.42304e-05
53 *110:14 *1294:A1 0.000111854
54 *110:14 *287:20 7.03591e-05
55 *110:33 *287:20 0.000344117
56 *110:33 *287:33 1.3456e-05
57 *120:71 *1287:A1 1.94282e-05
58 *123:16 *287:10 0
59 *159:41 *1305:B 2.67277e-05
60 *165:6 *1345:A1 7.3227e-05
61 *223:36 *1256:I 0.000145328
62 *265:14 *1345:A1 0.000262482
63 *265:42 *1345:A1 8.14409e-05
64 *273:10 *1256:I 2.6126e-05
65 *274:14 *1294:A1 8.09684e-06
66 *274:14 *287:20 7.7239e-06
67 *274:34 *287:20 5.29986e-06
68 *274:47 *1305:B 0.00132176
69 *274:47 *287:20 0.000332184
70 *276:14 *1305:B 2.23853e-05
71 *280:48 *1287:A1 1.19441e-05
72 *280:72 *1287:A1 2.13185e-05
73 *280:72 *1345:A1 2.57255e-05
*RES
1 *1515:Z *287:10 9.912 
2 *287:10 *287:20 9.82 
3 *287:20 *1294:A1 5.488 
4 *287:20 *287:33 10.596 
5 *287:33 *1295:A1 4.5 
6 *287:33 *287:44 7.084 
7 *287:44 *287:46 1.14 
8 *287:46 *1287:A1 12.952 
9 *287:46 *1345:A1 19.292 
10 *287:44 *1256:I 12.572 
11 *287:10 *1305:B 14.016 
*END

*D_NET *288 0.0180528
*CONN
*I *1299:A2 I *D gf180mcu_fd_sc_mcu7t5v0__oai21_1
*I *1293:A3 I *D gf180mcu_fd_sc_mcu7t5v0__or3_1
*I *1281:A3 I *D gf180mcu_fd_sc_mcu7t5v0__nand4_1
*I *1288:A1 I *D gf180mcu_fd_sc_mcu7t5v0__aoi21_1
*I *1259:I I *D gf180mcu_fd_sc_mcu7t5v0__clkinv_1
*I *1381:A1 I *D gf180mcu_fd_sc_mcu7t5v0__nor3_1
*I *1516:Z O *D gf180mcu_fd_sc_mcu7t5v0__dlyb_1
*CAP
1 *1299:A2 0.000665392
2 *1293:A3 0
3 *1281:A3 1.58845e-05
4 *1288:A1 0
5 *1259:I 0.000843043
6 *1381:A1 0.000373635
7 *1516:Z 0.000501009
8 *288:76 0.00071688
9 *288:34 0.00125081
10 *288:32 0.000229242
11 *288:26 0.000412065
12 *288:20 0.000753571
13 *1259:I *1290:A2 3.69669e-05
14 *1299:A2 *1293:A1 1.5961e-05
15 *1299:A2 *1293:A2 0.000200744
16 *1299:A2 *1299:A1 2.96621e-05
17 *1299:A2 *1465:RN 2.15175e-05
18 *1299:A2 *1527:I 8.39178e-05
19 *1299:A2 *1601:I 0.000349085
20 *1299:A2 *341:14 5.99677e-05
21 *1299:A2 *345:25 0.00113502
22 *1381:A1 *1460:RN 0.000132142
23 *1381:A1 *1461:RN 2.26351e-05
24 *1381:A1 *296:36 8.9901e-05
25 *1381:A1 *298:65 3.78145e-05
26 *1381:A1 *298:76 6.50326e-05
27 *288:20 *1465:RN 1.05243e-05
28 *288:26 *341:14 0.000662346
29 *288:76 *1293:A2 1.38099e-05
30 *288:76 *1465:RN 1.14294e-05
31 *376:I *288:20 0.000121542
32 *443:I *1299:A2 0.000660734
33 *1273:A2 *288:20 2.30715e-05
34 *1280:A1 *1381:A1 7.88878e-05
35 *1280:A1 *288:32 0.00114111
36 *1280:A1 *288:34 0.000264709
37 *1280:A3 *1281:A3 3.47988e-05
38 *1288:A2 *1259:I 0.000475741
39 *1289:A2 *1299:A2 0.000378626
40 *1369:A2 *1259:I 0.000139342
41 *1380:A1 *288:32 0.000350818
42 *1382:A1 *1281:A3 0.000137785
43 *1382:A1 *288:32 0.000343671
44 *1408:A3 *1299:A2 0.000151432
45 *1410:A3 *1299:A2 5.87561e-06
46 *1460:CLK *288:20 9.7375e-05
47 *1460:CLK *288:26 8.81387e-05
48 *1460:CLK *288:32 0.000160748
49 *1462:D *1299:A2 0.000290189
50 *1462:D *288:20 0.000205828
51 *1462:D *288:76 2.04755e-05
52 *1464:D *1299:A2 2.2768e-05
53 *1471:I *288:20 7.15162e-06
54 *1488:I *1299:A2 4.71391e-05
55 *1529:I *1299:A2 8.81341e-06
56 *1569:I *1299:A2 0.000669873
57 *1571:I *1381:A1 1.82665e-05
58 *4:30 *1299:A2 0.000156857
59 *4:30 *288:20 5.89817e-05
60 *86:20 *1259:I 0.000400254
61 *100:16 *1381:A1 0.000360765
62 *100:31 *288:26 5.27252e-06
63 *100:31 *288:32 6.64701e-06
64 *100:54 *1299:A2 0.000163205
65 *100:58 *1299:A2 0.000140772
66 *111:28 *1281:A3 3.08902e-05
67 *120:71 *288:20 4.2123e-05
68 *124:16 *288:20 1.88046e-05
69 *208:399 *288:20 6.69116e-05
70 *208:401 *288:20 3.08621e-05
71 *210:17 *1381:A1 0.000390519
72 *210:17 *288:32 0.00073014
73 *210:17 *288:34 0.000291295
74 *210:23 *1381:A1 0.000143199
75 *239:83 *288:20 0.000303427
76 *239:97 *288:26 2.69165e-05
*RES
1 *1516:Z *288:20 26.148 
2 *288:20 *288:26 10.9 
3 *288:26 *288:32 8.756 
4 *288:32 *288:34 0.836 
5 *288:34 *1381:A1 12.8 
6 *288:34 *1259:I 23.472 
7 *288:32 *1288:A1 9 
8 *288:26 *1281:A3 4.88 
9 *288:20 *288:76 0.38 
10 *288:76 *1293:A3 4.5 
11 *288:76 *1299:A2 40.848 
*END

*D_NET *289 0.040862
*CONN
*I *1284:A1 I *D gf180mcu_fd_sc_mcu7t5v0__nand2_1
*I *1295:A2 I *D gf180mcu_fd_sc_mcu7t5v0__or2_1
*I *357:I I *D gf180mcu_fd_sc_mcu7t5v0__antenna
*I *362:I I *D gf180mcu_fd_sc_mcu7t5v0__antenna
*I *1257:I I *D gf180mcu_fd_sc_mcu7t5v0__clkinv_1
*I *363:I I *D gf180mcu_fd_sc_mcu7t5v0__antenna
*I *349:I I *D gf180mcu_fd_sc_mcu7t5v0__antenna
*I *1294:A2 I *D gf180mcu_fd_sc_mcu7t5v0__nor2_2
*I *396:I I *D gf180mcu_fd_sc_mcu7t5v0__antenna
*I *436:I I *D gf180mcu_fd_sc_mcu7t5v0__antenna
*I *395:I I *D gf180mcu_fd_sc_mcu7t5v0__antenna
*I *1395:A1 I *D gf180mcu_fd_sc_mcu7t5v0__nor2_1
*I *1378:A1 I *D gf180mcu_fd_sc_mcu7t5v0__nor2_1
*I *1517:Z O *D gf180mcu_fd_sc_mcu7t5v0__dlyb_1
*CAP
1 *1284:A1 0.000145401
2 *1295:A2 0
3 *357:I 0.000142857
4 *362:I 0
5 *1257:I 0
6 *363:I 0.000175173
7 *349:I 0.000551494
8 *1294:A2 0.000168632
9 *396:I 0.000324997
10 *436:I 0
11 *395:I 0
12 *1395:A1 0
13 *1378:A1 4.74388e-05
14 *1517:Z 2.93095e-05
15 *289:171 0.000142857
16 *289:134 0.00116829
17 *289:122 0.000574796
18 *289:118 0.000270495
19 *289:116 0.000356719
20 *289:99 0.00171708
21 *289:53 0.000686549
22 *289:38 0.00105022
23 *289:25 0.000722557
24 *289:14 0.00245718
25 *289:6 0.00387961
26 *396:I *1419:RN 0.000259376
27 *396:I *1420:RN 0.000288897
28 *396:I *1556:I 0.00083153
29 *396:I *315:19 0.000345705
30 *1284:A1 *1405:A1 0.00019058
31 *289:14 *292:16 0.00242582
32 *289:14 *292:78 0.000805915
33 *289:14 *332:8 0
34 *289:14 *332:40 0
35 *289:53 *404:I 0.000548957
36 *289:53 *1555:I 3.52706e-05
37 *289:53 *1556:I 0.000377452
38 *289:53 *315:19 0.000431556
39 *289:99 *1246:I 2.82949e-05
40 *289:99 *1311:A1 0.000162877
41 *289:99 *1548:I 0.000262828
42 *289:99 *292:47 0.00014525
43 *289:99 *302:27 0.00013041
44 *289:116 *1548:I 0.000133367
45 *289:134 *1379:A1 9.88857e-05
46 *289:134 *1598:I 0.000416026
47 dac_p[6] *349:I 7.39173e-05
48 *353:I *289:14 0
49 *366:I *289:38 0
50 *366:I *289:53 0
51 *424:I *289:14 0.000115002
52 *1265:I *349:I 0.000149589
53 *1267:I *349:I 3.84756e-06
54 *1269:I *349:I 0.000286283
55 *1269:I *363:I 0.000194221
56 *1287:A1 *363:I 0.000426864
57 *1287:A2 *289:116 0.000187616
58 *1287:A2 *289:118 0.000462978
59 *1287:A2 *289:122 0.000411265
60 *1287:A2 *289:134 2.88179e-05
61 *1291:A2 *289:6 2.01247e-05
62 *1291:A2 *289:99 0.000234141
63 *1307:A2 *289:14 2.12573e-05
64 *1315:B *289:25 0.000587483
65 *1315:B *289:38 0.000606155
66 *1318:A1 *289:14 0
67 *1320:A2 *289:14 0.000214611
68 *1324:A2 *289:14 0
69 *1327:A2 *289:25 7.88666e-05
70 *1327:A2 *289:38 9.71552e-05
71 *1347:B *289:14 0.000117344
72 *1354:B *289:6 1.75512e-05
73 *1354:B *289:99 1.75557e-05
74 *1360:A2 *289:99 9.52676e-05
75 *1361:A2 *289:99 0.00034885
76 *1363:B *289:99 0.000640846
77 *1366:A2 *349:I 5.53227e-05
78 *1367:A2 *289:134 8.41027e-06
79 *1372:B *349:I 0.000477985
80 *1372:B *363:I 0.000183975
81 *1373:A1 *289:99 0.000176491
82 *1374:B1 *289:134 3.46802e-05
83 *1374:B2 *289:134 4.58601e-06
84 *1378:A2 *1378:A1 9.88736e-06
85 *1383:A3 *1294:A2 0.000279004
86 *1383:A3 *289:118 0
87 *1385:I0 *289:53 0.000305982
88 *1386:S *289:14 0
89 *1395:A2 *1378:A1 7.45328e-07
90 *1397:A2 *1284:A1 0.000149837
91 *1398:I1 *289:99 0
92 *1400:A1 *289:14 0.000240286
93 *1406:A1 *289:99 0.000239048
94 *1416:CLK *289:14 0.000181456
95 *1435:D *289:14 9.59587e-06
96 *1451:D *349:I 0.000132729
97 *1452:D *289:134 0.00040115
98 *1452:CLK *357:I 0.000146225
99 *1470:I *289:99 3.37994e-05
100 *1479:I *289:99 0.000335531
101 *1481:I *289:14 8.68622e-05
102 *1563:I *289:14 0.000177014
103 *1564:I *349:I 1.78482e-05
104 *1581:I *289:38 0.000171585
105 *1581:I *289:53 0.000264222
106 *7:28 *289:38 0.00012836
107 *94:16 *289:14 6.8465e-05
108 *104:12 *357:I 9.7812e-05
109 *108:14 *289:99 0.000359444
110 *110:14 *289:99 7.45328e-07
111 *110:14 *289:116 0
112 *120:71 *363:I 0.000190267
113 *120:71 *1284:A1 9.30306e-06
114 *120:71 *1294:A2 0.000325617
115 *120:71 *289:118 0
116 *120:71 *289:134 0.000243851
117 *134:26 *289:14 0.000111525
118 *170:30 *289:14 0.00380954
119 *187:24 *289:14 0.000141629
120 *247:24 *349:I 0.000748141
121 *248:48 *363:I 0.000433917
122 *249:12 *349:I 2.68222e-05
123 *252:10 *396:I 0.000255722
124 *269:65 *289:14 0.000208946
125 *269:65 *289:25 0.00021548
126 *269:69 *289:14 0.000527597
127 *273:10 *357:I 0.000138015
128 *273:10 *289:118 4.01619e-05
129 *273:10 *289:122 0.000148555
130 *273:10 *289:134 0.000129649
131 *273:12 *289:134 1.14159e-05
132 *273:61 *349:I 1.2018e-05
133 *273:61 *289:134 3.38847e-05
134 *274:14 *1284:A1 7.23422e-05
135 *276:114 *289:38 2.20002e-05
136 *276:147 *1284:A1 8.88753e-05
137 *285:51 *289:38 0
138 *287:33 *1294:A2 2.80876e-06
139 *287:33 *289:116 2.85217e-05
140 *287:44 *289:116 0.000138015
*RES
1 *1517:Z *289:6 4.728 
2 *289:6 *289:14 32.712 
3 *289:14 *1378:A1 4.728 
4 *289:14 *289:25 5.944 
5 *289:25 *1395:A1 9 
6 *289:25 *289:38 9.82 
7 *289:38 *395:I 4.5 
8 *289:38 *289:53 4.94 
9 *289:53 *436:I 4.5 
10 *289:53 *396:I 9.44 
11 *289:6 *289:99 22.452 
12 *289:99 *1294:A2 14.336 
13 *289:99 *289:116 6.324 
14 *289:116 *289:118 1.292 
15 *289:118 *289:122 1.368 
16 *289:122 *289:134 17.528 
17 *289:134 *349:I 19.732 
18 *289:134 *363:I 7.464 
19 *289:122 *1257:I 9 
20 *289:118 *289:171 4.5 
21 *289:171 *362:I 4.5 
22 *289:171 *357:I 5.944 
23 *289:116 *1295:A2 9 
24 *1294:A2 *1284:A1 19.368 
*END

*D_NET *290 0.0398818
*CONN
*I *1248:I I *D gf180mcu_fd_sc_mcu7t5v0__clkinv_1
*I *348:I I *D gf180mcu_fd_sc_mcu7t5v0__antenna
*I *1272:A3 I *D gf180mcu_fd_sc_mcu7t5v0__or4_2
*I *356:I I *D gf180mcu_fd_sc_mcu7t5v0__antenna
*I *1271:A1 I *D gf180mcu_fd_sc_mcu7t5v0__nor2_1
*I *355:I I *D gf180mcu_fd_sc_mcu7t5v0__antenna
*I *370:I I *D gf180mcu_fd_sc_mcu7t5v0__antenna
*I *1321:A1 I *D gf180mcu_fd_sc_mcu7t5v0__nor2_4
*I *1337:A1 I *D gf180mcu_fd_sc_mcu7t5v0__and3_1
*I *1325:A3 I *D gf180mcu_fd_sc_mcu7t5v0__nor4_4
*I *368:I I *D gf180mcu_fd_sc_mcu7t5v0__antenna
*I *437:I I *D gf180mcu_fd_sc_mcu7t5v0__antenna
*I *374:I I *D gf180mcu_fd_sc_mcu7t5v0__antenna
*I *1518:Z O *D gf180mcu_fd_sc_mcu7t5v0__buf_2
*CAP
1 *1248:I 0.000286932
2 *348:I 0.000134276
3 *1272:A3 0
4 *356:I 0
5 *1271:A1 0.000436985
6 *355:I 0.00212004
7 *370:I 0
8 *1321:A1 8.23304e-05
9 *1337:A1 0.000563704
10 *1325:A3 0
11 *368:I 0.000215818
12 *437:I 0
13 *374:I 9.86043e-05
14 *1518:Z 0
15 *290:188 0.000946929
16 *290:151 0.00122588
17 *290:129 0.00123531
18 *290:123 0.000972138
19 *290:61 0.000877595
20 *290:55 0.000540183
21 *290:40 0.000748222
22 *290:34 0.000713746
23 *290:21 0.000325304
24 *290:10 0.000334693
25 *290:6 0.00235613
26 *355:I *406:I 0.000127812
27 *355:I *1334:A1 0.000100721
28 *355:I *1440:RN 5.98063e-05
29 *355:I *1558:I 3.87932e-05
30 *355:I *317:24 1.91917e-06
31 *355:I *335:12 8.22887e-05
32 *1271:A1 *1445:RN 0.000803615
33 *1271:A1 *1456:RN 0.000182735
34 *1337:A1 *312:14 4.58601e-06
35 *290:10 *1390:I1 9.78219e-05
36 *290:10 *336:31 4.71425e-05
37 *290:34 *1390:I1 0.000194942
38 *290:34 *327:53 7.93519e-05
39 *290:34 *327:55 0.000105288
40 *290:129 *292:47 0.000243976
41 *290:151 *1258:I 0.000853353
42 *290:151 *1270:A2 0.000140663
43 *290:151 *291:79 0.000540609
44 *290:151 *293:54 0.000381064
45 *290:151 *302:27 0
46 *290:151 *340:37 0.000634389
47 *290:188 *1430:SETN 9.17202e-06
48 *290:188 *1550:I 9.17202e-06
49 *290:188 *312:29 0.00119731
50 *1305:A1 *348:I 0.000390032
51 *1325:A1 *368:I 0
52 *1325:A2 *290:40 7.40648e-05
53 *1325:A2 *290:55 6.64889e-05
54 *1325:A2 *290:61 6.04444e-06
55 *1325:A4 *1337:A1 0
56 *1328:A1 *355:I 0.000709207
57 *1328:A1 *290:10 5.36543e-05
58 *1328:B *290:34 0
59 *1328:B *290:40 0
60 *1329:A3 *1321:A1 0.000258182
61 *1329:A4 *368:I 3.73627e-05
62 *1329:A4 *290:55 1.34641e-05
63 *1329:A4 *290:61 4.37382e-05
64 *1330:A2 *290:34 0.000415243
65 *1332:B *290:34 0
66 *1335:B *355:I 0
67 *1337:A2 *1337:A1 1.75557e-05
68 *1341:A1 *290:40 1.34254e-05
69 *1341:A3 *1337:A1 1.49066e-06
70 *1341:A4 *1337:A1 0
71 *1341:A4 *290:129 4.38516e-05
72 *1341:A4 *290:188 1.62487e-05
73 *1349:A1 *1248:I 0.000146543
74 *1349:A1 *290:188 0.00179656
75 *1354:B *1271:A1 0.000467869
76 *1362:B *374:I 2.79905e-06
77 *1362:B *290:10 7.11799e-06
78 *1365:A1 *290:34 0.000108227
79 *1372:A2 *348:I 0.00015869
80 *1400:A1 *290:151 0.000338103
81 *1400:A2 *290:151 2.41778e-05
82 *1400:B2 *290:129 0
83 *1400:B2 *290:188 0
84 *1401:A2 *290:151 0.000394969
85 *1422:D *355:I 8.78711e-05
86 *1427:D *290:151 1.97747e-05
87 *1441:D *355:I 3.83835e-06
88 *1441:CLK *355:I 0.000526775
89 *1445:CLK *1271:A1 0.000264194
90 *1445:CLK *290:151 0.000512535
91 *1448:CLK *1271:A1 0.000353393
92 *1501:I *348:I 6.74954e-06
93 *1518:I *374:I 0.000241755
94 *1518:I *290:10 0.000313033
95 *1537:I *1271:A1 0.000441248
96 *1544:I *368:I 0.000227626
97 *1544:I *290:40 0.000292158
98 *1574:I *1271:A1 0.000869217
99 *1575:I *1271:A1 6.01587e-06
100 *96:12 *1248:I 0.000387087
101 *96:12 *290:188 0.00136618
102 *97:60 *1337:A1 6.07806e-05
103 *97:60 *290:61 0.000210554
104 *108:43 *1337:A1 1.16188e-05
105 *109:24 *290:151 0.000966235
106 *123:45 *1248:I 2.76198e-05
107 *177:24 *290:34 6.50255e-06
108 *177:24 *290:40 1.85935e-05
109 *191:20 *355:I 0
110 *192:8 *290:129 0.00013063
111 *192:8 *290:151 7.3227e-05
112 *205:25 *1321:A1 0.000289075
113 *206:14 *290:129 0.000171735
114 *209:23 *1271:A1 0.00056232
115 *209:25 *1271:A1 0.00029336
116 *219:18 *1271:A1 2.6126e-05
117 *229:51 *1337:A1 0.000200277
118 *229:51 *290:61 6.03838e-05
119 *229:72 *1337:A1 0.000108939
120 *231:50 *348:I 0.000215472
121 *233:22 *290:129 0.000393129
122 *241:62 *1271:A1 0.00016585
123 *243:21 *1271:A1 0.000738845
124 *243:67 *1321:A1 0.000350464
125 *243:101 *355:I 0.000109855
126 *265:42 *1271:A1 1.5961e-05
127 *266:20 *374:I 2.33414e-05
128 *268:25 *368:I 0.000105536
129 *268:25 *290:40 3.10117e-05
130 *274:159 *355:I 1.92407e-05
131 *276:46 *1271:A1 5.52198e-05
132 *276:46 *290:151 3.42743e-05
133 *280:10 *290:129 0.00199021
134 *284:12 *355:I 0.000739511
*RES
1 *1518:Z *290:6 9 
2 *290:6 *290:10 1.976 
3 *290:10 *374:I 9.684 
4 *290:10 *290:21 4.5 
5 *290:21 *437:I 4.5 
6 *290:21 *290:34 7.312 
7 *290:34 *290:40 6.932 
8 *290:40 *368:I 6.4 
9 *290:40 *290:55 5.336 
10 *290:55 *290:61 6.628 
11 *290:61 *1325:A3 4.5 
12 *290:61 *1337:A1 8.3 
13 *290:55 *1321:A1 10.748 
14 *290:34 *370:I 9 
15 *290:6 *355:I 23.668 
16 *1325:A3 *290:123 9 
17 *290:123 *290:129 11.036 
18 *290:129 *290:151 19.716 
19 *290:151 *1271:A1 22.012 
20 *290:151 *356:I 4.5 
21 *290:129 *1272:A3 4.5 
22 *290:123 *290:188 12.708 
23 *290:188 *348:I 15.096 
24 *290:188 *1248:I 7.008 
*END

*D_NET *291 0.0175261
*CONN
*I *1272:A2 I *D gf180mcu_fd_sc_mcu7t5v0__or4_2
*I *1270:A2 I *D gf180mcu_fd_sc_mcu7t5v0__nor2_2
*I *1316:A2 I *D gf180mcu_fd_sc_mcu7t5v0__and2_1
*I *1312:A2 I *D gf180mcu_fd_sc_mcu7t5v0__and3_1
*I *1247:I I *D gf180mcu_fd_sc_mcu7t5v0__inv_2
*I *1399:A2 I *D gf180mcu_fd_sc_mcu7t5v0__oai22_4
*I *1519:Z O *D gf180mcu_fd_sc_mcu7t5v0__buf_2
*CAP
1 *1272:A2 0
2 *1270:A2 0.000263881
3 *1316:A2 0.00027687
4 *1312:A2 0.000280317
5 *1247:I 6.39405e-05
6 *1399:A2 0.00104072
7 *1519:Z 0.000224064
8 *291:79 0.000795421
9 *291:44 0.000954959
10 *291:18 0.00092807
11 *291:10 0.000976789
12 *1270:A2 *1270:A1 0.000372325
13 *1270:A2 *1548:I 6.48288e-05
14 *1316:A2 *404:I 0.000874624
15 *1316:A2 *1313:A1 0.000248576
16 *1316:A2 *1327:A1 0.000584087
17 *1316:A2 *328:60 0.000292672
18 *1399:A2 *312:29 0.000262029
19 *291:10 *404:I 0.000192727
20 *291:10 *292:16 0
21 *291:18 *292:8 4.46203e-05
22 *291:18 *312:29 0.000156679
23 *291:44 *404:I 0.00125714
24 *291:44 *292:16 4.88048e-06
25 *291:44 *292:78 1.63661e-05
26 *291:44 *328:10 2.41598e-05
27 *291:79 *312:29 0
28 *291:79 *340:37 2.23783e-05
29 *353:I *1316:A2 0.000207864
30 *353:I *291:44 6.31406e-05
31 *1264:I *291:79 0
32 *1311:A2 *1270:A2 4.41053e-06
33 *1312:A3 *1312:A2 8.55327e-05
34 *1328:B *1312:A2 0
35 *1363:B *1270:A2 0.000137785
36 *1399:A1 *291:79 1.5015e-05
37 *1400:A2 *1270:A2 6.00969e-05
38 *1400:A2 *291:79 0.000182957
39 *1400:A3 *291:79 9.54385e-05
40 *1400:B2 *291:79 8.03759e-06
41 *1437:CLK *1312:A2 0.000353934
42 *1480:I *1399:A2 8.41372e-05
43 *1480:I *291:18 5.4832e-05
44 *1507:I *1399:A2 2.21662e-05
45 *1546:I *1399:A2 4.07677e-05
46 *206:22 *1270:A2 0.000457731
47 *208:123 *1399:A2 2.66673e-05
48 *229:51 *291:44 3.72664e-06
49 *230:41 *1270:A2 0
50 *230:41 *1312:A2 0.000699946
51 *240:12 *291:10 0.000233334
52 *240:12 *291:18 6.91347e-05
53 *240:12 *291:44 0
54 *240:23 *291:79 0.000307974
55 *243:21 *291:10 4.77596e-05
56 *243:36 *291:44 0.000203118
57 *277:18 *1312:A2 0.000351928
58 *277:63 *1312:A2 0.000432827
59 *280:10 *1270:A2 0.000689725
60 *280:10 *291:79 0.00168174
61 *290:151 *1270:A2 0.000140663
62 *290:151 *291:79 0.000540609
*RES
1 *1519:Z *291:10 10.976 
2 *291:10 *291:18 7.008 
3 *291:18 *1399:A2 7.996 
4 *291:18 *1247:I 4.88 
5 *291:10 *291:44 13.028 
6 *291:44 *1312:A2 12.876 
7 *291:44 *1316:A2 13.104 
8 *1399:A2 *291:79 15.384 
9 *291:79 *1270:A2 12.648 
10 *291:79 *1272:A2 9 
*END

*D_NET *292 0.0251172
*CONN
*I *1307:A1 I *D gf180mcu_fd_sc_mcu7t5v0__and3_1
*I *1316:A1 I *D gf180mcu_fd_sc_mcu7t5v0__and2_1
*I *1272:A1 I *D gf180mcu_fd_sc_mcu7t5v0__or4_2
*I *1270:A1 I *D gf180mcu_fd_sc_mcu7t5v0__nor2_2
*I *1311:A1 I *D gf180mcu_fd_sc_mcu7t5v0__nor2_2
*I *1246:I I *D gf180mcu_fd_sc_mcu7t5v0__inv_2
*I *1520:Z O *D gf180mcu_fd_sc_mcu7t5v0__dlyb_1
*CAP
1 *1307:A1 8.8856e-05
2 *1316:A1 0.000194024
3 *1272:A1 0
4 *1270:A1 0.000130663
5 *1311:A1 2.03611e-05
6 *1246:I 0.00098228
7 *1520:Z 0.000113404
8 *292:78 0.00100449
9 *292:47 0.000280196
10 *292:41 0.000399338
11 *292:16 0.0018329
12 *292:8 0.00141547
13 *1246:I *1448:RN 0.000366039
14 *1307:A1 *1327:A1 0.000182807
15 *1307:A1 *328:60 0.00021813
16 *1311:A1 *302:27 0.000258182
17 *1316:A1 *1327:A1 0.000926694
18 *1316:A1 *1353:C 8.16375e-05
19 *1316:A1 *328:60 7.18111e-05
20 *292:16 *308:22 0.000193381
21 *292:41 *308:22 0.00096066
22 *292:47 *302:27 0.00023952
23 *292:78 *404:I 1.00436e-05
24 *292:78 *1353:C 1.80494e-06
25 dac_p[3] *1246:I 1.2965e-05
26 dac_p[6] *1246:I 0.000164594
27 dac_p[7] *1246:I 0.000135047
28 *359:I *1246:I 6.19579e-05
29 *1270:A2 *1270:A1 0.000372325
30 *1272:A4 *292:47 0.000133843
31 *1291:A2 *1246:I 0.00190166
32 *1313:A2 *1316:A1 0.000793094
33 *1313:A2 *292:8 0
34 *1313:A2 *292:78 0.000245644
35 *1328:B *1316:A1 3.30336e-06
36 *1360:A2 *1246:I 3.2184e-05
37 *1363:B *1270:A1 0.000191505
38 *1366:B *1246:I 0.000372137
39 *1400:A1 *292:16 0.000665306
40 *1479:I *1270:A1 7.21887e-05
41 *1487:I *1246:I 0.000105141
42 *94:16 *1246:I 3.68972e-05
43 *108:14 *292:47 2.98905e-05
44 *168:28 *1246:I 0.00119752
45 *206:22 *292:47 0.000403204
46 *230:41 *1270:A1 2.97126e-05
47 *233:22 *292:47 0.000843053
48 *239:12 *292:16 0.000873805
49 *239:41 *292:16 0.000416422
50 *239:41 *292:41 0.00214151
51 *280:10 *292:47 3.16375e-05
52 *289:14 *292:16 0.00242582
53 *289:14 *292:78 0.000805915
54 *289:99 *1246:I 2.82949e-05
55 *289:99 *1311:A1 0.000162877
56 *289:99 *292:47 0.00014525
57 *290:129 *292:47 0.000243976
58 *291:10 *292:16 0
59 *291:18 *292:8 4.46203e-05
60 *291:44 *292:16 4.88048e-06
61 *291:44 *292:78 1.63661e-05
*RES
1 *1520:Z *292:8 9.684 
2 *292:8 *292:16 12.632 
3 *292:16 *1246:I 24.444 
4 *292:16 *292:41 10.2 
5 *292:41 *292:47 7.54 
6 *292:47 *1311:A1 5.184 
7 *292:47 *1270:A1 15.02 
8 *292:41 *1272:A1 9 
9 *292:8 *292:78 10.2 
10 *292:78 *1316:A1 16.92 
11 *292:78 *1307:A1 5.792 
*END

*D_NET *293 0.0168707
*CONN
*I *1292:A2 I *D gf180mcu_fd_sc_mcu7t5v0__oai22_4
*I *1403:A2 I *D gf180mcu_fd_sc_mcu7t5v0__oai211_1
*I *1399:B2 I *D gf180mcu_fd_sc_mcu7t5v0__oai22_4
*I *1258:I I *D gf180mcu_fd_sc_mcu7t5v0__clkinv_1
*I *1290:A2 I *D gf180mcu_fd_sc_mcu7t5v0__nor2_1
*I *1284:A2 I *D gf180mcu_fd_sc_mcu7t5v0__nand2_1
*I *1521:Z O *D gf180mcu_fd_sc_mcu7t5v0__buf_2
*CAP
1 *1292:A2 9.35384e-05
2 *1403:A2 0
3 *1399:B2 0
4 *1258:I 0.000172295
5 *1290:A2 0.00132556
6 *1284:A2 7.95413e-05
7 *1521:Z 3.72651e-05
8 *293:54 0.000678658
9 *293:22 0.00155232
10 *293:14 0.00070547
11 *293:12 0.000225898
12 *293:6 0.000304815
13 *1290:A2 *1376:A2 0.000341581
14 *1290:A2 *1548:I 0.000358686
15 *1292:A2 *302:10 9.17202e-06
16 *1292:A2 *343:12 9.36366e-05
17 *293:12 *302:10 0.000109328
18 *293:14 *1405:A1 8.84331e-05
19 *293:22 *1405:A1 0.000680244
20 *293:54 *1376:A2 0.000323008
21 *293:54 *340:37 0.000273519
22 *431:I *1290:A2 0
23 *1259:I *1290:A2 3.69669e-05
24 *1264:I *293:54 0
25 *1369:A2 *1290:A2 0.000128106
26 *1372:A2 *1290:A2 6.69987e-05
27 *1376:A1 *1290:A2 6.09807e-06
28 *1377:A3 *1290:A2 0.000314666
29 *1383:A1 *1290:A2 0.0003403
30 *1400:A1 *1258:I 0.000247885
31 *1400:A1 *293:54 0.000422015
32 *1401:A2 *1258:I 0.000476463
33 *1402:A2 *293:54 0.000348919
34 *1402:A3 *293:54 0.000157424
35 *1403:B *293:12 0.000730111
36 *1403:B *293:14 0.000186106
37 *1407:A1 *1290:A2 0.000737524
38 *1407:B2 *293:54 0.00013347
39 *1452:D *1290:A2 0
40 *1469:I *1292:A2 0.000103524
41 *1469:I *293:12 0.000196625
42 *1571:I *1290:A2 0.000195927
43 *108:14 *293:54 0.000304616
44 *108:27 *293:54 0.000447073
45 *109:24 *1258:I 1.3758e-05
46 *118:14 *293:12 0.000719524
47 *118:14 *293:14 0.000314205
48 *118:14 *293:22 0.000687096
49 *208:19 *293:22 0.000128864
50 *208:371 *1290:A2 0.000199702
51 *208:371 *293:22 1.38099e-05
52 *208:385 *1290:A2 7.70742e-05
53 *230:41 *1258:I 2.28332e-05
54 *272:59 *1258:I 3.80391e-05
55 *274:14 *1284:A2 0.000286962
56 *274:14 *1290:A2 4.14296e-05
57 *274:14 *293:22 9.17202e-06
58 *276:20 *293:14 2.66741e-05
59 *276:46 *1258:I 3.74762e-06
60 *282:29 *293:54 1.95729e-05
61 *290:151 *1258:I 0.000853353
62 *290:151 *293:54 0.000381064
*RES
1 *1521:Z *293:6 4.728 
2 *293:6 *293:12 7.692 
3 *293:12 *293:14 0.988 
4 *293:14 *293:22 7.464 
5 *293:22 *1284:A2 5.564 
6 *293:22 *1290:A2 24.824 
7 *293:14 *293:54 10.96 
8 *293:54 *1258:I 16.388 
9 *293:54 *1399:B2 4.5 
10 *293:12 *1403:A2 9 
11 *293:6 *1292:A2 5.336 
*END

*D_NET *294 0.00999752
*CONN
*I *1375:A3 I *D gf180mcu_fd_sc_mcu7t5v0__nor3_1
*I *1305:A2 I *D gf180mcu_fd_sc_mcu7t5v0__oai21_1
*I *1407:A2 I *D gf180mcu_fd_sc_mcu7t5v0__oai221_4
*I *1522:Z O *D gf180mcu_fd_sc_mcu7t5v0__dlyb_1
*CAP
1 *1375:A3 0.0013794
2 *1305:A2 0.000409553
3 *1407:A2 0.000168935
4 *1522:Z 0.0013794
5 *294:4 0.000578488
6 *1305:A2 *312:14 4.90069e-05
7 *1375:A3 *1432:RN 0.000121378
8 *1375:A3 *1601:I 2.96621e-05
9 *1375:A3 *296:116 0.000552732
10 *1375:A3 *312:14 0.000175622
11 *1283:A1 *1375:A3 0.00224017
12 *1349:A1 *1305:A2 0
13 *1349:A1 *1375:A3 0
14 *1349:A1 *1407:A2 0.00021953
15 *1375:A2 *1375:A3 0.000192577
16 *1408:B *1375:A3 0.000331264
17 *1409:B2 *1375:A3 2.08264e-05
18 *1414:A3 *1375:A3 0.000252062
19 *1415:A2 *1375:A3 1.64443e-05
20 *1433:D *1375:A3 0.00108764
21 *1466:CLK *1375:A3 4.49374e-05
22 *1488:I *1375:A3 0.000192577
23 *1502:I *1305:A2 8.25105e-05
24 *99:44 *1375:A3 0.000117608
25 *170:30 *1375:A3 2.2097e-05
26 *214:26 *1375:A3 0.000159689
27 *214:41 *1375:A3 0.000173409
*RES
1 *1522:Z *294:4 4.5 
2 *294:4 *1407:A2 6.324 
3 *294:4 *1305:A2 7.312 
4 *1522:Z *1375:A3 32.592 
*END

*D_NET *295 0.0133002
*CONN
*I *1448:RN I *D gf180mcu_fd_sc_mcu7t5v0__dffrnq_1
*I *1548:I I *D gf180mcu_fd_sc_mcu7t5v0__clkbuf_1
*I *1523:Z O *D gf180mcu_fd_sc_mcu7t5v0__dlyb_1
*CAP
1 *1448:RN 0.000377639
2 *1548:I 0.00182893
3 *1523:Z 0
4 *295:4 0.00220657
5 *1548:I *1345:A2 0.000241393
6 *1548:I *1551:I 0.000117421
7 *1548:I *304:12 4.08125e-05
8 *1548:I *342:30 0.000916568
9 *391:I *1448:RN 6.96206e-06
10 *1246:I *1448:RN 0.000366039
11 *1249:I *1548:I 0.000402651
12 *1265:I *1548:I 0.000106749
13 *1269:I *1548:I 2.2413e-05
14 *1270:A2 *1548:I 6.48288e-05
15 *1290:A2 *1548:I 0.000358686
16 *1361:A1 *1448:RN 0.00095848
17 *1363:B *1448:RN 0.000435019
18 *1363:B *1548:I 0.000211937
19 *1369:A2 *1548:I 0
20 *1369:B *1548:I 0.000820576
21 *1372:A2 *1548:I 0.000161689
22 *1383:A3 *1548:I 0.000511736
23 *1404:A2 *1548:I 0.000366304
24 *1407:A1 *1548:I 2.57058e-06
25 *1426:D *1448:RN 4.72007e-05
26 *1429:D *1548:I 2.23477e-05
27 *1479:I *1548:I 0.000134671
28 *1493:I *1548:I 0.000882442
29 *1510:I *1548:I 5.06403e-06
30 *1571:I *1548:I 4.86581e-05
31 *97:14 *1548:I 1.65939e-05
32 *104:12 *1548:I 1.88647e-06
33 *105:14 *1548:I 2.06747e-05
34 *168:28 *1448:RN 0.000278838
35 *209:6 *1448:RN 4.47134e-05
36 *235:22 *1548:I 4.41641e-06
37 *245:31 *1448:RN 6.6617e-05
38 *245:31 *1548:I 0.000216797
39 *248:48 *1548:I 7.12411e-05
40 *248:65 *1548:I 7.85892e-05
41 *279:10 *1548:I 3.73535e-05
42 *287:44 *1548:I 0.000399908
43 *289:99 *1548:I 0.000262828
44 *289:116 *1548:I 0.000133367
*RES
1 *1523:Z *295:4 4.5 
2 *295:4 *1548:I 32.804 
3 *295:4 *1448:RN 18.44 
*END

*D_NET *296 0.0454603
*CONN
*I *401:I I *D gf180mcu_fd_sc_mcu7t5v0__antenna
*I *445:I I *D gf180mcu_fd_sc_mcu7t5v0__antenna
*I *409:I I *D gf180mcu_fd_sc_mcu7t5v0__antenna
*I *1426:RN I *D gf180mcu_fd_sc_mcu7t5v0__dffrnq_1
*I *1445:RN I *D gf180mcu_fd_sc_mcu7t5v0__dffrnq_1
*I *1456:RN I *D gf180mcu_fd_sc_mcu7t5v0__dffrnq_1
*I *403:I I *D gf180mcu_fd_sc_mcu7t5v0__antenna
*I *1547:Z O *D gf180mcu_fd_sc_mcu7t5v0__buf_1
*CAP
1 *401:I 4.00981e-05
2 *445:I 0
3 *409:I 0.000176436
4 *1426:RN 6.88159e-05
5 *1445:RN 0.000658187
6 *1456:RN 2.54231e-05
7 *403:I 0.000206568
8 *1547:Z 0.00039043
9 *296:118 0.000176436
10 *296:116 0.0030291
11 *296:69 0.00106133
12 *296:61 0.000606852
13 *296:46 0.00131396
14 *296:36 0.00259371
15 *296:10 0.00502607
16 *1445:RN *328:16 9.88736e-06
17 *296:10 *298:76 1.16164e-05
18 *296:36 *1460:RN 0.000245004
19 *296:36 *1598:I 0.000882152
20 *296:36 *298:65 0
21 *296:36 *342:30 4.2318e-06
22 *296:46 *1598:I 0.00119131
23 *296:116 *1434:RN 0.00016935
24 *296:116 *1601:I 0.00015813
25 busy *403:I 2.57058e-06
26 dac_n[6] *296:10 0.000158394
27 dac_n[7] *296:10 0.000159742
28 dac_p[3] *296:46 0.000993649
29 samp_bot *296:61 5.66946e-05
30 *351:I *401:I 0.000124769
31 *364:I *401:I 4.66861e-05
32 *364:I *296:116 0.000149728
33 *369:I *409:I 0
34 *382:I *296:116 3.26399e-05
35 *414:I *296:116 6.13591e-05
36 *418:I *296:116 0.000199171
37 *1249:I *296:36 0
38 *1252:I *296:10 0
39 *1260:I *296:46 0
40 *1260:I *296:61 0.000103787
41 *1262:I *296:61 3.43325e-05
42 *1271:A1 *1445:RN 0.000803615
43 *1271:A1 *1456:RN 0.000182735
44 *1277:A1 *296:116 1.78155e-05
45 *1277:A2 *296:116 0
46 *1280:A2 *296:36 8.53639e-05
47 *1283:A1 *296:116 0.000307581
48 *1289:A2 *296:116 8.67364e-05
49 *1291:A2 *296:69 1.40677e-05
50 *1310:B *1426:RN 2.88786e-05
51 *1324:B *409:I 0.000292967
52 *1348:A1 *403:I 0
53 *1348:A1 *296:46 0.000100193
54 *1348:A2 *296:61 0.00208749
55 *1350:B *1445:RN 0.000228585
56 *1354:B *296:46 0.000367321
57 *1354:B *296:69 0.00013063
58 *1363:A1 *296:46 0.000228928
59 *1366:A2 *296:36 8.18346e-06
60 *1369:B *296:36 0.000108807
61 *1374:A1 *296:36 6.90444e-05
62 *1375:A3 *296:116 0.000552732
63 *1381:A1 *296:36 8.9901e-05
64 *1381:A2 *296:10 4.64453e-05
65 *1381:A2 *296:116 0.000103214
66 *1384:A1 *296:116 0.000152982
67 *1384:B *296:36 0
68 *1384:B *296:116 0.000158267
69 *1393:S *401:I 0
70 *1398:S *1445:RN 0
71 *1408:B *296:116 3.71745e-05
72 *1409:B2 *296:116 7.32735e-05
73 *1414:A3 *296:116 0.000252062
74 *1432:D *296:116 0.000110287
75 *1445:D *296:61 0.00217616
76 *1446:D *1445:RN 0.000136128
77 *1447:D *296:69 1.45335e-05
78 *1450:D *296:36 0.000201957
79 *1450:D *296:46 0.000309838
80 *1454:D *296:36 0.000272476
81 *1458:D *296:10 0.000117494
82 *1458:D *296:116 4.64479e-05
83 *1459:D *296:69 0.000275783
84 *1460:D *296:116 0.00107856
85 *1476:I *296:116 3.24134e-05
86 *1503:I *296:46 0.00100318
87 *1537:I *1445:RN 0.000490988
88 *1570:I *296:36 1.45915e-05
89 *1571:I *296:36 0.000573794
90 *1575:I *296:46 7.46015e-06
91 *86:20 *296:36 0.00207422
92 *99:44 *296:116 0.000143293
93 *100:16 *296:36 7.49127e-05
94 *122:20 *296:36 0.000165766
95 *122:20 *296:46 0.000108912
96 *126:28 *296:116 2.97354e-06
97 *170:30 *296:116 3.43709e-05
98 *170:55 *296:116 1.12495e-05
99 *206:43 *296:36 0.000187776
100 *225:14 *296:116 0
101 *228:10 *296:116 0.000868877
102 *229:22 *403:I 4.90714e-05
103 *229:22 *296:46 2.63438e-05
104 *235:22 *296:10 6.76124e-05
105 *240:23 *1445:RN 6.53072e-05
106 *241:111 *409:I 0.000372811
107 *241:119 *401:I 0.000145096
108 *241:119 *296:116 0.00160932
109 *243:21 *1445:RN 0.00207486
110 *243:21 *1456:RN 0.000182735
111 *263:10 *1426:RN 1.27961e-05
112 *263:10 *296:69 5.76461e-05
113 *265:42 *296:46 0.00239866
114 *272:109 *296:116 0.000211246
115 *276:203 *296:116 7.21792e-05
116 *276:216 *296:116 8.51394e-05
117 *276:220 *409:I 0
118 *280:48 *296:36 0.000711402
119 *281:29 *296:46 0
*RES
1 *1547:Z *296:10 12.04 
2 *296:10 *296:36 47.612 
3 *296:36 *296:46 13.452 
4 *296:46 *403:I 5.716 
5 *296:46 *296:61 14.852 
6 *296:61 *296:69 7.16 
7 *296:69 *1456:RN 9.532 
8 *296:69 *1445:RN 17.36 
9 *296:61 *1426:RN 5.108 
10 *296:10 *296:116 25.156 
11 *296:116 *296:118 4.5 
12 *296:118 *409:I 6.704 
13 *296:118 *445:I 4.5 
14 *296:116 *401:I 9.684 
*END

*D_NET *297 0.0131323
*CONN
*I *1598:I I *D gf180mcu_fd_sc_mcu7t5v0__buf_2
*I *1260:ZN O *D gf180mcu_fd_sc_mcu7t5v0__clkinv_1
*CAP
1 *1598:I 0.00130699
2 *1260:ZN 0.00130699
3 *1598:I *1379:A1 0.000143621
4 *1598:I *1454:RN 9.22579e-05
5 *1598:I *304:14 7.21513e-05
6 dac_p[3] *1598:I 0.000196614
7 *1260:I *1598:I 2.88786e-05
8 *1269:I *1598:I 2.71306e-05
9 *1304:A2 *1598:I 0.000144132
10 *1336:A1 *1598:I 2.81554e-06
11 *1348:A1 *1598:I 1.06347e-05
12 *1357:A2 *1598:I 0.000580371
13 *1360:A2 *1598:I 3.59023e-05
14 *1367:A2 *1598:I 0
15 *1373:A2 *1598:I 2.4706e-05
16 *1426:CLK *1598:I 0
17 *1450:D *1598:I 1.10152e-05
18 *1487:I *1598:I 0.00030618
19 *1564:I *1598:I 0.000379449
20 *109:24 *1598:I 9.79641e-05
21 *120:12 *1598:I 2.45455e-06
22 *122:20 *1598:I 0.0031982
23 *134:26 *1598:I 1.22634e-05
24 *265:42 *1598:I 0.00116042
25 *281:10 *1598:I 0.0015017
26 *289:134 *1598:I 0.000416026
27 *296:36 *1598:I 0.000882152
28 *296:46 *1598:I 0.00119131
*RES
1 *1260:ZN *1598:I 46.076 
*END

*D_NET *298 0.0581159
*CONN
*I *1547:I I *D gf180mcu_fd_sc_mcu7t5v0__buf_1
*I *444:I I *D gf180mcu_fd_sc_mcu7t5v0__antenna
*I *406:I I *D gf180mcu_fd_sc_mcu7t5v0__antenna
*I *446:I I *D gf180mcu_fd_sc_mcu7t5v0__antenna
*I *1447:RN I *D gf180mcu_fd_sc_mcu7t5v0__dffrnq_1
*I *404:I I *D gf180mcu_fd_sc_mcu7t5v0__antenna
*I *1446:RN I *D gf180mcu_fd_sc_mcu7t5v0__dffrnq_1
*I *1548:Z O *D gf180mcu_fd_sc_mcu7t5v0__clkbuf_1
*CAP
1 *1547:I 0
2 *444:I 0.000537606
3 *406:I 0.00195806
4 *446:I 0
5 *1447:RN 0
6 *404:I 0.00198404
7 *1446:RN 4.27396e-05
8 *1548:Z 0
9 *298:86 0.00774719
10 *298:76 0.00560436
11 *298:65 0.000716478
12 *298:26 0.00396474
13 *298:14 0.00558259
14 *298:4 0.00400827
15 *404:I *1314:A1 4.01619e-05
16 *404:I *1353:C 0.00154935
17 *404:I *332:8 0.000664507
18 *404:I *332:40 0.000877869
19 *406:I *1333:B 8.84892e-05
20 *406:I *1391:I1 4.45976e-05
21 *406:I *1437:RN 2.6126e-05
22 *406:I *1440:RN 0.000458619
23 *406:I *1441:RN 0.000133972
24 *406:I *1531:I 0
25 *406:I *1557:I 0.000446088
26 *406:I *1559:I 0.000464454
27 *406:I *336:16 0.000260446
28 *406:I *337:43 0.000762796
29 *1446:RN *312:29 2.28628e-05
30 *298:14 *342:30 0.000668098
31 *298:65 *1538:I 0.000384288
32 *298:65 *342:30 0.00031512
33 dac_n[6] *298:76 1.34641e-06
34 dac_n[7] *298:76 5.05374e-05
35 *353:I *404:I 0.000208956
36 *355:I *406:I 0.000127812
37 *358:I *406:I 1.88647e-06
38 *366:I *404:I 4.47463e-05
39 *405:I *404:I 0
40 *419:I *444:I 7.98237e-05
41 *424:I *404:I 1.21291e-05
42 *1290:A1 *298:14 0.00138039
43 *1306:A1 *404:I 2.88612e-05
44 *1313:A2 *404:I 0.000144851
45 *1316:A2 *404:I 0.000874624
46 *1335:A2 *406:I 3.83835e-06
47 *1350:B *1446:RN 0.000133398
48 *1354:A2 *298:26 0
49 *1355:A2 *444:I 0.00028245
50 *1357:B *298:26 0.00219681
51 *1373:B *298:14 0
52 *1374:B1 *298:14 0
53 *1381:A1 *298:65 3.78145e-05
54 *1381:A1 *298:76 6.50326e-05
55 *1385:I0 *404:I 0.000185099
56 *1387:I0 *404:I 0
57 *1396:A2 *298:76 6.98149e-05
58 *1422:D *406:I 5.23458e-05
59 *1425:D *406:I 0.00111539
60 *1435:D *404:I 0.000117487
61 *1441:D *406:I 2.7935e-05
62 *1442:D *406:I 8.6057e-05
63 *1442:CLK *406:I 6.73834e-05
64 *1443:D *406:I 0.000163098
65 *1458:D *298:76 4.07251e-05
66 *1490:I *406:I 7.41459e-05
67 *1568:I *298:86 6.06802e-05
68 *1571:I *298:14 0
69 *86:20 *298:76 0
70 *100:16 *298:76 7.59985e-05
71 *134:26 *404:I 0.000143199
72 *166:26 *298:26 0.000176422
73 *172:22 *406:I 0.000356134
74 *172:22 *444:I 6.77712e-05
75 *191:34 *298:86 0
76 *225:26 *298:86 0.000393275
77 *232:56 *404:I 0.000286009
78 *233:22 *298:14 0.00262797
79 *235:22 *298:14 0.000136871
80 *235:22 *298:65 0.000210169
81 *235:22 *298:76 0.00031602
82 *241:62 *404:I 0
83 *243:21 *404:I 0.000239709
84 *243:36 *404:I 2.99011e-05
85 *243:67 *406:I 0.000205431
86 *243:79 *406:I 0.000499793
87 *243:101 *406:I 0.00105035
88 *248:65 *298:14 0.00180522
89 *252:10 *404:I 0
90 *270:37 *406:I 2.76442e-05
91 *274:159 *406:I 0.000246185
92 *276:192 *406:I 0.000111962
93 *280:31 *298:14 0
94 *289:53 *404:I 0.000548957
95 *291:10 *404:I 0.000192727
96 *291:44 *404:I 0.00125714
97 *292:78 *404:I 1.00436e-05
98 *296:10 *298:76 1.16164e-05
99 *296:36 *298:65 0
*RES
1 *1548:Z *298:4 4.5 
2 *298:4 *298:14 32.484 
3 *298:14 *298:26 18.3785 
4 *298:26 *1446:RN 9.38 
5 *298:26 *404:I 28.684 
6 *298:14 *1447:RN 13.5 
7 *298:4 *298:65 3.496 
8 *298:65 *446:I 4.5 
9 *298:65 *298:76 7.692 
10 *298:76 *298:86 23.4939 
11 *298:86 *406:I 42.6319 
12 *298:86 *444:I 16.7761 
13 *298:76 *1547:I 9 
*END

*D_NET *299 0.00370635
*CONN
*I *1449:RN I *D gf180mcu_fd_sc_mcu7t5v0__dffrnq_1
*I *1450:RN I *D gf180mcu_fd_sc_mcu7t5v0__dffrnq_1
*I *1451:RN I *D gf180mcu_fd_sc_mcu7t5v0__dffrnq_1
*I *1524:Z O *D gf180mcu_fd_sc_mcu7t5v0__dlyb_1
*CAP
1 *1449:RN 0.000343332
2 *1450:RN 6.79126e-05
3 *1451:RN 6.79126e-05
4 *1524:Z 0.00028803
5 *299:17 0.000628388
6 *299:8 0.000573086
7 *391:I *1449:RN 2.49644e-05
8 *1361:A1 *1449:RN 6.01012e-06
9 *1363:B *299:8 0.000139427
10 *1363:B *299:17 2.65884e-05
11 *1426:D *1449:RN 4.58601e-06
12 *1454:CLK *299:8 0.00028938
13 *1478:I *1449:RN 6.20599e-07
14 *1478:I *299:17 1.46041e-05
15 *1493:I *299:17 1.95806e-05
16 *1503:I *299:8 3.45049e-05
17 *1503:I *299:17 5.08863e-05
18 *245:31 *1449:RN 5.87561e-06
19 *246:14 *1449:RN 0.000465012
20 *246:14 *299:17 0.000646838
21 *272:31 *1449:RN 8.81341e-06
*RES
1 *1524:Z *299:8 6.78 
2 *299:8 *1451:RN 4.88 
3 *299:8 *299:17 2.204 
4 *299:17 *1450:RN 4.88 
5 *299:17 *1449:RN 6.704 
*END

*D_NET *300 0.00389157
*CONN
*I *1550:I I *D gf180mcu_fd_sc_mcu7t5v0__clkbuf_1
*I *1430:SETN I *D gf180mcu_fd_sc_mcu7t5v0__dffsnq_1
*I *1525:Z O *D gf180mcu_fd_sc_mcu7t5v0__dlyb_1
*CAP
1 *1550:I 0.000324289
2 *1430:SETN 0.000313423
3 *1525:Z 0
4 *300:4 0.000637712
5 *1430:SETN *302:10 0.000114858
6 *1430:SETN *312:29 0.000173764
7 *1550:I *302:10 0.00037075
8 *1337:A2 *1430:SETN 7.53927e-05
9 *1366:A2 *1430:SETN 0.000252746
10 *1521:I *1550:I 0.000141703
11 *96:12 *1550:I 0.00070246
12 *97:14 *1430:SETN 0.000140178
13 *108:43 *1430:SETN 8.75225e-05
14 *123:45 *1550:I 0.000538429
15 *290:188 *1430:SETN 9.17202e-06
16 *290:188 *1550:I 9.17202e-06
*RES
1 *1525:Z *300:4 4.5 
2 *300:4 *1430:SETN 16.54 
3 *300:4 *1550:I 8.984 
*END

*D_NET *301 0.00488419
*CONN
*I *1428:RN I *D gf180mcu_fd_sc_mcu7t5v0__dffrnq_1
*I *1427:SETN I *D gf180mcu_fd_sc_mcu7t5v0__dffsnq_1
*I *1549:Z O *D gf180mcu_fd_sc_mcu7t5v0__clkbuf_1
*CAP
1 *1428:RN 5.81642e-05
2 *1427:SETN 0.000148585
3 *1549:Z 0.00065572
4 *301:10 0.000862469
5 *1264:I *301:10 0.000306342
6 *1357:A2 *301:10 0.000106145
7 *1360:A2 *301:10 1.02876e-05
8 *1360:B *301:10 9.04857e-05
9 *1374:B1 *301:10 6.04407e-05
10 *1501:I *301:10 0.000412884
11 *94:37 *1427:SETN 2.80108e-05
12 *94:37 *1428:RN 6.61278e-06
13 *109:24 *301:10 0.00110566
14 *240:23 *1427:SETN 0.00053258
15 *240:23 *1428:RN 0.000182263
16 *244:39 *301:10 0.000317544
*RES
1 *1549:Z *301:10 20.112 
2 *301:10 *1427:SETN 5.944 
3 *301:10 *1428:RN 5.032 
*END

*D_NET *302 0.0127928
*CONN
*I *1429:RN I *D gf180mcu_fd_sc_mcu7t5v0__dffrnq_2
*I *1523:I I *D gf180mcu_fd_sc_mcu7t5v0__dlyb_1
*I *1549:I I *D gf180mcu_fd_sc_mcu7t5v0__clkbuf_1
*I *1524:I I *D gf180mcu_fd_sc_mcu7t5v0__dlyb_1
*I *1550:Z O *D gf180mcu_fd_sc_mcu7t5v0__clkbuf_1
*CAP
1 *1429:RN 0.000184098
2 *1523:I 0
3 *1549:I 0.000250969
4 *1524:I 0
5 *1550:Z 0.000654908
6 *302:27 0.000860968
7 *302:18 0.00117076
8 *302:10 0.00139977
9 *302:10 *312:29 5.76749e-06
10 *302:10 *343:12 0.000582363
11 *1292:A2 *302:10 9.17202e-06
12 *1311:A1 *302:27 0.000258182
13 *1311:A2 *302:27 0
14 *1360:A2 *1549:I 0.000181264
15 *1361:A2 *1549:I 5.39289e-05
16 *1366:A2 *302:10 0.000410189
17 *1366:A2 *302:18 0.000112697
18 *1373:A1 *1549:I 0.000487527
19 *1373:A1 *302:27 0.000215304
20 *1373:B *1549:I 2.23385e-05
21 *1374:B1 *1549:I 2.49387e-05
22 *1397:A1 *302:18 0.000666414
23 *1404:A2 *302:18 0.000297593
24 *1430:D *302:10 1.48937e-05
25 *1430:SETN *302:10 0.000114858
26 *1470:I *1549:I 4.97222e-05
27 *1470:I *302:27 1.15244e-05
28 *1501:I *1549:I 9.17202e-06
29 *1509:I *1429:RN 0.000234057
30 *1509:I *302:10 8.15645e-05
31 *1509:I *302:18 0.00059029
32 *1550:I *302:10 0.00037075
33 *97:14 *302:10 0.000135263
34 *97:14 *302:18 0.00149134
35 *108:14 *302:27 0.000131068
36 *110:14 *302:27 6.90452e-05
37 *123:45 *302:10 0.000422015
38 *206:14 *302:27 2.98131e-06
39 *244:39 *1549:I 0.000735838
40 *289:99 *302:27 0.00013041
41 *290:151 *302:27 0
42 *292:47 *302:27 0.00023952
43 *293:12 *302:10 0.000109328
*RES
1 *1550:Z *302:10 15.536 
2 *302:10 *302:18 10.96 
3 *302:18 *1524:I 4.5 
4 *302:18 *302:27 4.56 
5 *302:27 *1549:I 16.844 
6 *302:27 *1523:I 4.5 
7 *302:10 *1429:RN 10.368 
*END

*D_NET *303 0.00218025
*CONN
*I *1552:I I *D gf180mcu_fd_sc_mcu7t5v0__clkbuf_1
*I *1457:SETN I *D gf180mcu_fd_sc_mcu7t5v0__dffsnq_1
*I *1526:Z O *D gf180mcu_fd_sc_mcu7t5v0__dlyb_1
*CAP
1 *1552:I 7.57956e-05
2 *1457:SETN 0.00026885
3 *1526:Z 0
4 *303:6 0.000344645
5 *1457:SETN *1460:RN 0
6 *1457:SETN *1526:I 0.000262131
7 *1552:I *1526:I 0.000450797
8 *1252:I *1457:SETN 0.000251566
9 *1252:I *1552:I 0.000482558
10 *1289:A2 *1457:SETN 2.13331e-05
11 *1383:A2 *1552:I 8.81341e-06
12 *1597:I *1457:SETN 0
13 *1597:I *1552:I 1.3758e-05
*RES
1 *1526:Z *303:6 9 
2 *303:6 *1457:SETN 10.976 
3 *303:6 *1552:I 10.52 
*END

*D_NET *304 0.00566456
*CONN
*I *1453:RN I *D gf180mcu_fd_sc_mcu7t5v0__dffrnq_1
*I *1452:RN I *D gf180mcu_fd_sc_mcu7t5v0__dffrnq_1
*I *1454:RN I *D gf180mcu_fd_sc_mcu7t5v0__dffrnq_1
*I *1551:Z O *D gf180mcu_fd_sc_mcu7t5v0__buf_1
*CAP
1 *1453:RN 0
2 *1452:RN 0
3 *1454:RN 8.46837e-05
4 *1551:Z 0.000592365
5 *304:14 0.000200703
6 *304:12 0.000708384
7 *1454:RN *308:22 0.000246065
8 *304:12 *342:30 4.51576e-05
9 *1269:I *1454:RN 0.000374182
10 *1269:I *304:12 0.000193933
11 *1269:I *304:14 0.000835667
12 *1287:A1 *304:12 2.11153e-05
13 *1345:A1 *304:12 6.817e-05
14 *1372:A2 *304:12 0.00102858
15 *1548:I *304:12 4.08125e-05
16 *1564:I *1454:RN 4.66761e-05
17 *1564:I *304:12 4.45507e-05
18 *1564:I *304:14 0.000176403
19 *1571:I *304:12 0
20 *1598:I *1454:RN 9.22579e-05
21 *1598:I *304:14 7.21513e-05
22 *120:12 *1454:RN 0.000531036
23 *280:48 *304:12 7.90878e-06
24 *280:72 *304:12 0.000253759
*RES
1 *1551:Z *304:12 18.668 
2 *304:12 *304:14 2.204 
3 *304:14 *1454:RN 24.78 
4 *304:14 *1452:RN 4.5 
5 *304:12 *1453:RN 4.5 
*END

*D_NET *305 0.00913878
*CONN
*I *1461:RN I *D gf180mcu_fd_sc_mcu7t5v0__dffrnq_1
*I *1455:RN I *D gf180mcu_fd_sc_mcu7t5v0__dffrnq_1
*I *1551:I I *D gf180mcu_fd_sc_mcu7t5v0__buf_1
*I *1552:Z O *D gf180mcu_fd_sc_mcu7t5v0__clkbuf_1
*CAP
1 *1461:RN 0.000518777
2 *1455:RN 0
3 *1551:I 6.76049e-05
4 *1552:Z 0.000532931
5 *305:12 0.000493076
6 *305:8 0.00147718
7 *305:12 *1288:B 0
8 *305:12 *1465:D 2.53586e-05
9 *448:I *305:8 0
10 *1256:I *1551:I 0.000524615
11 *1256:I *305:12 0.000123418
12 *1280:A1 *1461:RN 8.04789e-05
13 *1289:A2 *305:8 0
14 *1372:A2 *1551:I 0.000267578
15 *1381:A1 *1461:RN 2.26351e-05
16 *1383:A1 *305:8 8.28508e-05
17 *1383:A1 *305:12 4.62379e-05
18 *1383:A2 *305:8 3.06453e-05
19 *1384:B *305:8 0.000185439
20 *1460:D *305:8 0.00080725
21 *1461:D *305:12 0.000735512
22 *1464:CLK *305:8 0.00106688
23 *1464:CLK *305:12 3.94705e-05
24 *1548:I *1551:I 0.000117421
25 *1571:I *1461:RN 0.000557521
26 *1571:I *305:8 0
27 *1597:I *305:8 8.3518e-05
28 *104:12 *305:12 2.0468e-05
29 *223:12 *305:12 4.21224e-05
30 *223:36 *1551:I 0.000531217
31 *223:36 *305:12 0.000658575
*RES
1 *1552:Z *305:8 9.972 
2 *305:8 *305:12 4.56 
3 *305:12 *1551:I 15.628 
4 *305:12 *1455:RN 4.5 
5 *305:8 *1461:RN 16.616 
*END

*D_NET *306 0.0052031
*CONN
*I *1553:I I *D gf180mcu_fd_sc_mcu7t5v0__clkbuf_1
*I *1464:RN I *D gf180mcu_fd_sc_mcu7t5v0__dffrnq_1
*I *1465:RN I *D gf180mcu_fd_sc_mcu7t5v0__dffrnq_1
*I *1527:Z O *D gf180mcu_fd_sc_mcu7t5v0__dlyb_1
*CAP
1 *1553:I 0.000605502
2 *1464:RN 3.58372e-05
3 *1465:RN 0.000877772
4 *1527:Z 6.30612e-05
5 *306:8 0.00110654
6 *306:6 0.000861497
7 *1465:RN *1293:A2 0
8 *1553:I *1528:I 1.33331e-05
9 *1553:I *1554:I 0
10 *1553:I *307:18 9.26705e-05
11 *1281:A1 *1465:RN 1.4222e-05
12 *1299:A2 *1465:RN 2.15175e-05
13 *1382:A1 *1465:RN 3.67359e-05
14 *1382:A1 *1553:I 0
15 *1462:D *1464:RN 0.000358107
16 *1462:D *1465:RN 0
17 *1462:D *1553:I 6.54393e-05
18 *1462:D *306:8 3.34722e-05
19 *1464:D *1464:RN 0.00034896
20 *1471:I *1465:RN 5.90898e-05
21 *1484:I *1465:RN 3.69906e-05
22 *1542:I *1465:RN 7.11102e-06
23 *100:31 *1465:RN 2.97866e-05
24 *100:54 *1465:RN 0.000140161
25 *100:54 *1553:I 0
26 *100:54 *306:8 9.59587e-06
27 *111:28 *1553:I 7.20304e-05
28 *116:20 *1465:RN 8.9253e-05
29 *116:20 *306:8 4.09314e-05
30 *124:16 *1465:RN 0.000133727
31 *126:14 *1465:RN 2.77991e-05
32 *288:20 *1465:RN 1.05243e-05
33 *288:76 *1465:RN 1.14294e-05
*RES
1 *1527:Z *306:6 4.88 
2 *306:6 *306:8 1.14 
3 *306:8 *1465:RN 10.276 
4 *306:8 *1464:RN 14.488 
5 *306:6 *1553:I 8.224 
*END

*D_NET *307 0.00732023
*CONN
*I *1458:RN I *D gf180mcu_fd_sc_mcu7t5v0__dffrnq_1
*I *1460:RN I *D gf180mcu_fd_sc_mcu7t5v0__dffrnq_1
*I *1553:Z O *D gf180mcu_fd_sc_mcu7t5v0__clkbuf_1
*CAP
1 *1458:RN 0.000145292
2 *1460:RN 0.000579124
3 *1553:Z 0.00110937
4 *307:18 0.00183379
5 *1460:RN *1526:I 1.63312e-05
6 cmp_clk *307:18 0
7 cmp_rst *307:18 0.000905057
8 dac_n[9] *1458:RN 0.000251848
9 dac_n[9] *1460:RN 4.83197e-05
10 dac_n[9] *307:18 9.88736e-06
11 *1381:A1 *1460:RN 0.000132142
12 *1382:A1 *307:18 7.71175e-06
13 *1382:A2 *1460:RN 0.000641405
14 *1382:A2 *307:18 0
15 *1457:D *1458:RN 0.000173448
16 *1457:D *1460:RN 0.000526238
17 *1457:SETN *1460:RN 0
18 *1553:I *307:18 9.26705e-05
19 *1569:I *307:18 0.000213214
20 *1570:I *1460:RN 0.000342528
21 *4:30 *1458:RN 1.75512e-05
22 *4:30 *307:18 1.26924e-05
23 *100:16 *1460:RN 1.6604e-05
24 *296:36 *1460:RN 0.000245004
*RES
1 *1553:Z *307:18 25.448 
2 *307:18 *1460:RN 15.232 
3 *307:18 *1458:RN 10.216 
*END

*D_NET *308 0.0155922
*CONN
*I *1599:I I *D gf180mcu_fd_sc_mcu7t5v0__buf_2
*I *1261:ZN O *D gf180mcu_fd_sc_mcu7t5v0__clkinv_1
*CAP
1 *1599:I 0
2 *1261:ZN 0.00488382
3 *308:22 0.00488382
4 *1357:B *308:22 0.000298379
5 *1374:A1 *308:22 5.63011e-05
6 *1396:A1 *308:22 0.000157623
7 *1398:I1 *308:22 0.000245453
8 *1400:A1 *308:22 7.38808e-06
9 *1427:D *308:22 0.000352176
10 *1428:D *308:22 0.000362389
11 *1454:RN *308:22 0.000246065
12 *109:24 *308:22 6.0553e-05
13 *120:12 *308:22 0.000254656
14 *177:24 *308:22 0.00154346
15 *239:12 *308:22 2.20526e-06
16 *239:41 *308:22 0.00017563
17 *243:21 *308:22 6.84173e-05
18 *248:16 *308:22 0.000827567
19 *276:46 *308:22 1.22843e-05
20 *292:16 *308:22 0.000193381
21 *292:41 *308:22 0.00096066
*RES
1 *1261:ZN *308:22 49.0958 
2 *308:22 *1599:I 9 
*END

*D_NET *309 0.00913603
*CONN
*I *1554:I I *D gf180mcu_fd_sc_mcu7t5v0__clkbuf_1
*I *1527:I I *D gf180mcu_fd_sc_mcu7t5v0__dlyb_1
*I *1526:I I *D gf180mcu_fd_sc_mcu7t5v0__dlyb_1
*I *1528:Z O *D gf180mcu_fd_sc_mcu7t5v0__dlyb_1
*CAP
1 *1554:I 0.000445353
2 *1527:I 6.07426e-05
3 *1526:I 0.000474718
4 *1528:Z 0
5 *309:23 0.000711783
6 *309:6 0.000680405
7 *1527:I *1601:I 5.62662e-05
8 *1527:I *311:6 1.18578e-05
9 *1554:I *310:16 1.03097e-05
10 *309:23 *1528:I 3.10294e-05
11 *1252:I *1526:I 0.000448922
12 *1252:I *309:23 0.00084012
13 *1275:A1 *1527:I 0.000146537
14 *1275:A1 *1554:I 0.000405332
15 *1275:A2 *1527:I 0.000247743
16 *1275:A2 *1554:I 0.000326954
17 *1276:A1 *1554:I 0.000900417
18 *1289:A2 *1526:I 7.36934e-05
19 *1299:A2 *1527:I 8.39178e-05
20 *1381:A2 *1526:I 8.11578e-05
21 *1457:SETN *1526:I 0.000262131
22 *1460:RN *1526:I 1.63312e-05
23 *1552:I *1526:I 0.000450797
24 *1553:I *1554:I 0
25 *98:12 *1554:I 0.000137244
26 *100:54 *1527:I 0.000185742
27 *111:8 *1554:I 0.00110258
28 *111:12 *1554:I 0.000560049
29 *111:28 *1526:I 2.59984e-05
30 *111:28 *309:23 0.000242167
31 *120:81 *1554:I 0.000115733
*RES
1 *1528:Z *309:6 9 
2 *309:6 *1526:I 13.788 
3 *309:6 *309:23 6.856 
4 *309:23 *1527:I 5.64 
5 *309:23 *1554:I 19.884 
*END

*D_NET *310 0.00824551
*CONN
*I *1466:RN I *D gf180mcu_fd_sc_mcu7t5v0__dffrnq_1
*I *1462:RN I *D gf180mcu_fd_sc_mcu7t5v0__dffrnq_1
*I *1554:Z O *D gf180mcu_fd_sc_mcu7t5v0__clkbuf_1
*CAP
1 *1466:RN 0.000288552
2 *1462:RN 0.000427088
3 *1554:Z 0.00137952
4 *310:16 0.00209516
5 *350:I *1466:RN 0.000929882
6 *377:I *310:16 1.50052e-05
7 *381:I *310:16 7.98466e-05
8 *415:I *310:16 6.15433e-05
9 *1279:A1 *310:16 8.47571e-05
10 *1289:A2 *310:16 5.33137e-05
11 *1298:A3 *310:16 0.000296042
12 *1301:A2 *310:16 0.000189693
13 *1346:A1 *310:16 7.3227e-05
14 *1346:A2 *310:16 9.48657e-05
15 *1349:A1 *1462:RN 5.67474e-05
16 *1349:A1 *310:16 4.32952e-05
17 *1369:A2 *1462:RN 0
18 *1415:A2 *310:16 0.000193715
19 *1431:D *310:16 0.00024357
20 *1431:CLK *310:16 5.48648e-05
21 *1432:D *310:16 0.000255228
22 *1466:D *1462:RN 2.17248e-05
23 *1466:D *310:16 6.01487e-05
24 *1554:I *310:16 1.03097e-05
25 *123:45 *1462:RN 5.31912e-05
26 *168:10 *310:16 4.44591e-06
27 *198:26 *1462:RN 0.000203242
28 *248:65 *1462:RN 0.000607791
29 *248:65 *1466:RN 5.35978e-05
30 *271:8 *310:16 7.79093e-05
31 *272:117 *310:16 0.000181899
32 *272:125 *310:16 5.53297e-05
*RES
1 *1554:Z *310:16 14.836 
2 *310:16 *1462:RN 16.768 
3 *310:16 *1466:RN 16.008 
*END

*D_NET *311 0.0101382
*CONN
*I *1528:I I *D gf180mcu_fd_sc_mcu7t5v0__dlyb_1
*I *1601:I I *D gf180mcu_fd_sc_mcu7t5v0__buf_1
*I *1529:Z O *D gf180mcu_fd_sc_mcu7t5v0__dlyb_1
*CAP
1 *1528:I 0.000122546
2 *1601:I 0.0010326
3 *1529:Z 2.36585e-05
4 *311:6 0.0011788
5 *1601:I *1375:A1 0.00041062
6 *1601:I *1516:I 3.40822e-05
7 *1601:I *344:27 5.16366e-05
8 *380:I *1601:I 1.14461e-05
9 *1252:I *1528:I 4.31847e-06
10 *1273:A1 *1601:I 2.58957e-05
11 *1275:A1 *1528:I 8.3622e-05
12 *1275:A1 *311:6 0.000147313
13 *1275:A2 *1528:I 9.17202e-06
14 *1278:A1 *1601:I 0.000636609
15 *1283:A1 *1601:I 8.44301e-05
16 *1289:A2 *1528:I 3.02735e-05
17 *1296:A3 *1601:I 5.72625e-05
18 *1299:A2 *1601:I 0.000349085
19 *1375:A2 *1601:I 0.000830347
20 *1375:A3 *1601:I 2.96621e-05
21 *1377:A2 *1601:I 0.000699174
22 *1407:C *1601:I 0
23 *1415:A1 *1601:I 0.000521365
24 *1460:CLK *1601:I 8.52954e-05
25 *1466:CLK *1601:I 0.00126029
26 *1527:I *1601:I 5.62662e-05
27 *1527:I *311:6 1.18578e-05
28 *1553:I *1528:I 1.33331e-05
29 *4:30 *1601:I 0.000187333
30 *4:30 *311:6 8.71673e-05
31 *44:10 *1601:I 8.56042e-06
32 *100:58 *1528:I 0.000187398
33 *111:28 *1528:I 0.000104905
34 *170:30 *1601:I 8.81341e-06
35 *208:397 *1601:I 0.000257938
36 *231:16 *1601:I 0.000350475
37 *239:47 *1601:I 0.00095544
38 *296:116 *1601:I 0.00015813
39 *309:23 *1528:I 3.10294e-05
*RES
1 *1529:Z *311:6 5.032 
2 *311:6 *1601:I 37.168 
3 *311:6 *1528:I 14.716 
*END

*D_NET *312 0.0172898
*CONN
*I *1459:SETN I *D gf180mcu_fd_sc_mcu7t5v0__dffsnq_1
*I *1467:RN I *D gf180mcu_fd_sc_mcu7t5v0__dffrnq_1
*I *1525:I I *D gf180mcu_fd_sc_mcu7t5v0__dlyb_1
*I *1601:Z O *D gf180mcu_fd_sc_mcu7t5v0__buf_1
*CAP
1 *1459:SETN 0.000381548
2 *1467:RN 0.000320867
3 *1525:I 7.61133e-05
4 *1601:Z 0.00136394
5 *312:29 0.00220522
6 *312:14 0.00294286
7 *1467:RN *1308:B 2.77354e-05
8 *1467:RN *1350:C 2.96621e-05
9 *1467:RN *328:16 2.23598e-06
10 *312:14 *1331:A1 1.08231e-05
11 *312:14 *1514:I 3.64765e-05
12 *1305:A2 *312:14 4.90069e-05
13 *1337:A1 *312:14 4.58601e-06
14 *1337:A2 *312:14 1.53123e-05
15 *1349:A1 *312:29 0.000234192
16 *1350:B *1467:RN 2.5879e-05
17 *1350:B *312:29 5.15292e-05
18 *1371:A1 *312:14 0.000756821
19 *1375:A3 *312:14 0.000175622
20 *1399:A2 *312:29 0.000262029
21 *1400:A3 *312:29 0
22 *1427:D *1459:SETN 0.000187308
23 *1430:SETN *312:29 0.000173764
24 *1430:CLK *1525:I 4.97712e-06
25 *1436:D *1459:SETN 2.23783e-05
26 *1445:D *1459:SETN 0.000184352
27 *1446:RN *312:29 2.28628e-05
28 *1477:I *312:29 0.000188493
29 *1494:I *1467:RN 0
30 *1502:I *312:14 4.46903e-06
31 *1519:I *312:29 0.000244627
32 *1537:I *1459:SETN 0.00143994
33 *1562:I *312:14 0.000120405
34 *108:27 *1525:I 0.000745016
35 *108:27 *312:14 0.000482918
36 *108:43 *312:14 2.30199e-05
37 *159:41 *312:14 0
38 *159:43 *312:14 2.05156e-05
39 *170:30 *312:14 7.57513e-06
40 *172:22 *1525:I 0.000745016
41 *172:22 *312:14 0.000909824
42 *208:85 *312:29 0.000171895
43 *208:87 *312:29 3.58923e-05
44 *208:123 *312:29 0
45 *229:72 *312:14 0.00048835
46 *229:83 *312:14 2.96621e-05
47 *240:12 *312:29 0.000141739
48 *241:62 *1459:SETN 0.000547661
49 *274:66 *312:14 3.83835e-06
50 *274:81 *312:14 8.81341e-06
51 *276:8 *312:14 2.23598e-06
52 *290:188 *312:29 0.00119731
53 *291:18 *312:29 0.000156679
54 *291:79 *312:29 0
55 *302:10 *312:29 5.76749e-06
*RES
1 *1601:Z *312:14 20.096 
2 *312:14 *1525:I 11.128 
3 *312:14 *312:29 16.584 
4 *312:29 *1467:RN 6.096 
5 *312:29 *1459:SETN 18.668 
*END

*D_NET *313 0.00431326
*CONN
*I *1420:RN I *D gf180mcu_fd_sc_mcu7t5v0__dffrnq_1
*I *1556:I I *D gf180mcu_fd_sc_mcu7t5v0__clkbuf_1
*I *1530:Z O *D gf180mcu_fd_sc_mcu7t5v0__dlyb_1
*CAP
1 *1420:RN 0.000546578
2 *1556:I 0.000466424
3 *1530:Z 0
4 *313:4 0.001013
5 *1420:RN *1419:RN 0.000128115
6 dout[4] *1420:RN 5.72946e-05
7 *366:I *1420:RN 0
8 *366:I *1556:I 0.000104963
9 *396:I *1420:RN 0.000288897
10 *396:I *1556:I 0.00083153
11 *1389:I0 *1420:RN 9.90183e-05
12 *252:10 *1556:I 0.000255722
13 *254:12 *1420:RN 6.84342e-05
14 *254:12 *1556:I 5.77419e-05
15 *255:10 *1420:RN 1.80854e-05
16 *289:53 *1556:I 0.000377452
*RES
1 *1530:Z *313:4 4.5 
2 *313:4 *1556:I 9.592 
3 *313:4 *1420:RN 8.984 
*END

*D_NET *314 0.00763769
*CONN
*I *1416:RN I *D gf180mcu_fd_sc_mcu7t5v0__dffrnq_1
*I *1417:RN I *D gf180mcu_fd_sc_mcu7t5v0__dffrnq_1
*I *1435:RN I *D gf180mcu_fd_sc_mcu7t5v0__dffrnq_1
*I *1555:Z O *D gf180mcu_fd_sc_mcu7t5v0__clkbuf_2
*CAP
1 *1416:RN 5.46724e-05
2 *1417:RN 0
3 *1435:RN 0.000359812
4 *1555:Z 9.49543e-05
5 *314:16 0.00079927
6 *314:6 0.000589085
7 *1435:RN *1313:A1 0.000634928
8 *1435:RN *1313:B 0.00030965
9 *1435:RN *1385:I1 0.000414038
10 *1435:RN *328:60 0.000201947
11 *1435:RN *330:30 0.000208478
12 *314:16 *1314:A1 0.000114557
13 *314:16 *1385:I1 0.000213726
14 dout[1] *314:6 2.88187e-05
15 dout[1] *314:16 1.15312e-05
16 *405:I *314:16 0
17 *1385:I0 *314:6 0
18 *1386:I0 *314:16 0.000437731
19 *1581:I *314:6 0
20 *1582:I *314:16 0.000211091
21 *143:14 *1435:RN 0.000433917
22 *191:20 *314:16 1.3639e-05
23 *269:65 *314:16 7.31112e-05
24 *285:51 *1435:RN 0.00189049
25 *285:51 *314:6 0.000410165
26 *285:51 *314:16 0.000132086
*RES
1 *1555:Z *314:6 5.64 
2 *314:6 *314:16 13.028 
3 *314:16 *1435:RN 20.644 
4 *314:16 *1417:RN 4.5 
5 *314:6 *1416:RN 4.88 
*END

*D_NET *315 0.00376008
*CONN
*I *1419:RN I *D gf180mcu_fd_sc_mcu7t5v0__dffrnq_1
*I *1418:RN I *D gf180mcu_fd_sc_mcu7t5v0__dffrnq_1
*I *1555:I I *D gf180mcu_fd_sc_mcu7t5v0__clkbuf_2
*I *1556:Z O *D gf180mcu_fd_sc_mcu7t5v0__clkbuf_1
*CAP
1 *1419:RN 0.000347954
2 *1418:RN 0
3 *1555:I 0.000238636
4 *1556:Z 0
5 *315:19 0.000563693
6 *315:4 0.000454376
7 dout[2] *1419:RN 8.55242e-05
8 dout[2] *1555:I 4.1341e-05
9 dout[2] *315:19 0.000129233
10 dout[3] *1419:RN 0.000680899
11 *396:I *1419:RN 0.000259376
12 *396:I *315:19 0.000345705
13 *1389:I0 *1419:RN 1.83977e-05
14 *1420:RN *1419:RN 0.000128115
15 *285:51 *1555:I 0
16 *289:53 *1555:I 3.52706e-05
17 *289:53 *315:19 0.000431556
*RES
1 *1556:Z *315:4 4.5 
2 *315:4 *1555:I 6.096 
3 *315:4 *315:19 2.584 
4 *315:19 *1418:RN 4.5 
5 *315:19 *1419:RN 8.832 
*END

*D_NET *316 0.00504624
*CONN
*I *1557:I I *D gf180mcu_fd_sc_mcu7t5v0__buf_1
*I *1441:RN I *D gf180mcu_fd_sc_mcu7t5v0__dffrnq_1
*I *1531:Z O *D gf180mcu_fd_sc_mcu7t5v0__dlyb_1
*CAP
1 *1557:I 0.000529724
2 *1441:RN 0.000232136
3 *1531:Z 0
4 *316:6 0.00076186
5 *1441:RN *1323:A1 1.3102e-05
6 *1441:RN *1531:I 0.000421998
7 *1557:I *1440:RN 6.7497e-05
8 *1557:I *1559:I 0.00118103
9 dout[4] *1557:I 6.52541e-06
10 *406:I *1441:RN 0.000133972
11 *406:I *1557:I 0.000446088
12 *450:I *1557:I 0.00104363
13 *1390:S *1557:I 2.89481e-05
14 *1441:D *1441:RN 3.74621e-05
15 *1441:D *1557:I 5.67491e-05
16 *256:10 *1557:I 0
17 *285:27 *1557:I 8.55242e-05
*RES
1 *1531:Z *316:6 9 
2 *316:6 *1441:RN 10.976 
3 *316:6 *1557:I 15.688 
*END

*D_NET *317 0.00409165
*CONN
*I *1439:RN I *D gf180mcu_fd_sc_mcu7t5v0__dffrnq_1
*I *1438:RN I *D gf180mcu_fd_sc_mcu7t5v0__dffrnq_1
*I *1440:RN I *D gf180mcu_fd_sc_mcu7t5v0__dffrnq_1
*I *1557:Z O *D gf180mcu_fd_sc_mcu7t5v0__buf_1
*CAP
1 *1439:RN 0
2 *1438:RN 0.000300392
3 *1440:RN 0.000679076
4 *1557:Z 0.000438707
5 *317:24 0.00054076
6 *1438:RN *334:24 4.1352e-05
7 *1440:RN *1559:I 0.000323441
8 *1440:RN *335:12 0
9 *317:24 *335:12 0
10 dout[4] *1440:RN 9.34472e-05
11 *355:I *1440:RN 5.98063e-05
12 *355:I *317:24 1.91917e-06
13 *406:I *1440:RN 0.000458619
14 *1419:D *1438:RN 2.05953e-05
15 *1420:D *1438:RN 5.85779e-05
16 *1420:D *317:24 3.94822e-05
17 *1557:I *1440:RN 6.7497e-05
18 *191:20 *1438:RN 0.000581637
19 *191:20 *1440:RN 3.87828e-05
20 *191:20 *317:24 0.000327577
21 *285:33 *1440:RN 1.99784e-05
*RES
1 *1557:Z *1440:RN 22.104 
2 *1440:RN *317:24 6.552 
3 *317:24 *1438:RN 16.236 
4 *317:24 *1439:RN 4.5 
*END

*D_NET *318 0.011225
*CONN
*I *1530:I I *D gf180mcu_fd_sc_mcu7t5v0__dlyb_1
*I *1558:I I *D gf180mcu_fd_sc_mcu7t5v0__buf_1
*I *1532:Z O *D gf180mcu_fd_sc_mcu7t5v0__dlyb_1
*CAP
1 *1530:I 0.000930565
2 *1558:I 0.000245756
3 *1532:Z 0.000417669
4 *318:10 0.00159399
5 *1558:I *1334:A1 5.3491e-05
6 *1558:I *1531:I 0.000349091
7 *1558:I *322:16 0.000676378
8 *318:10 *1323:A1 1.09943e-05
9 *318:10 *1531:I 4.21886e-05
10 dout[3] *1530:I 0.000247628
11 dout[4] *1530:I 2.61359e-05
12 dout[5] *1530:I 9.12534e-05
13 *355:I *1558:I 3.87932e-05
14 *441:I *1530:I 0.000146798
15 *1389:I0 *1530:I 0.00091861
16 *1391:I0 *318:10 0.000362377
17 *1422:D *1530:I 2.39896e-05
18 *1422:D *1558:I 0.000244641
19 *1422:D *318:10 0.000198536
20 *1441:CLK *1558:I 0.000245881
21 *1473:I *1530:I 2.16541e-05
22 *1513:I *1530:I 0.000191711
23 *1586:I *1530:I 0.000116115
24 *232:16 *1530:I 0.00235963
25 *232:18 *1530:I 0.000503207
26 *274:155 *1530:I 0
27 *274:183 *1530:I 4.36209e-05
28 *283:8 *1530:I 0.000528596
29 *284:12 *1530:I 0.000136472
30 *284:12 *318:10 0.000227661
31 *285:51 *1530:I 0.000231581
*RES
1 *1532:Z *318:10 12.192 
2 *318:10 *1558:I 12.496 
3 *318:10 *1530:I 21.16 
*END

*D_NET *319 0.0141305
*CONN
*I *1600:I I *D gf180mcu_fd_sc_mcu7t5v0__buf_2
*I *1262:ZN O *D gf180mcu_fd_sc_mcu7t5v0__clkinv_1
*CAP
1 *1600:I 0.00174791
2 *1262:ZN 0.00174791
3 dac_n[2] *1600:I 1.19393e-05
4 dac_p[6] *1600:I 0.000101285
5 samp_bot *1600:I 2.41598e-05
6 *1357:B *1600:I 0
7 *1364:A1 *1600:I 3.42922e-06
8 *1396:A1 *1600:I 0.0065664
9 *1568:I *1600:I 0.00392748
*RES
1 *1262:ZN *1600:I 47.14 
*END

*D_NET *320 0.0153532
*CONN
*I *1436:RN I *D gf180mcu_fd_sc_mcu7t5v0__dffrnq_1
*I *1437:RN I *D gf180mcu_fd_sc_mcu7t5v0__dffrnq_1
*I *1531:I I *D gf180mcu_fd_sc_mcu7t5v0__dlyb_1
*I *1558:Z O *D gf180mcu_fd_sc_mcu7t5v0__buf_1
*CAP
1 *1436:RN 0.000690466
2 *1437:RN 0.00173626
3 *1531:I 0.00210228
4 *1558:Z 0.00105649
5 *1436:RN *328:43 8.30848e-05
6 *1437:RN *1322:B 4.15199e-05
7 *1437:RN *1330:B 4.55537e-05
8 *1437:RN *335:31 0.000190633
9 *1437:RN *335:49 0.000608946
10 *1437:RN *336:16 6.2915e-05
11 *1531:I *1323:A1 0
12 *1531:I *1334:A1 1.12959e-05
13 *1531:I *1391:I1 1.73591e-05
14 *1531:I *1532:I 2.68309e-05
15 *1531:I *322:16 0.000403189
16 *1531:I *336:16 2.15841e-05
17 *353:I *1436:RN 0
18 *406:I *1437:RN 2.6126e-05
19 *406:I *1531:I 0
20 *1306:A1 *1436:RN 0.000362608
21 *1318:A2 *1437:RN 0.000430913
22 *1320:A2 *1437:RN 0
23 *1322:A2 *1437:RN 3.83835e-06
24 *1335:A1 *1531:I 8.66359e-05
25 *1335:A2 *1531:I 5.79071e-05
26 *1335:B *1531:I 0.00105135
27 *1359:A1 *1437:RN 0.000589197
28 *1359:B *1437:RN 0.000244261
29 *1362:A2 *1437:RN 3.93363e-06
30 *1391:I0 *1531:I 0.000607558
31 *1391:S *1531:I 7.83779e-05
32 *1422:D *1531:I 9.04266e-06
33 *1437:D *1436:RN 2.78759e-05
34 *1438:D *1437:RN 6.78741e-05
35 *1438:CLK *1437:RN 0.000221732
36 *1440:CLK *1437:RN 0.00036434
37 *1441:RN *1531:I 0.000421998
38 *1468:I *1436:RN 0.000188399
39 *1481:I *1437:RN 0
40 *1482:I *1437:RN 1.15312e-05
41 *1558:I *1531:I 0.000349091
42 *1592:I *1436:RN 0.000199573
43 *132:14 *1437:RN 6.67291e-05
44 *132:16 *1437:RN 0.000204913
45 *144:25 *1437:RN 0.000210124
46 *208:131 *1437:RN 4.13816e-05
47 *208:251 *1531:I 0.000163385
48 *220:6 *1436:RN 9.15861e-05
49 *220:6 *1437:RN 0.000423026
50 *220:17 *1436:RN 1.58383e-05
51 *221:13 *1437:RN 0.000151785
52 *241:62 *1436:RN 0.00142689
53 *267:18 *1437:RN 0
54 *274:155 *1531:I 1.27552e-05
55 *318:10 *1531:I 4.21886e-05
*RES
1 *1558:Z *1531:I 27.88 
2 *1531:I *1437:RN 20.096 
3 *1437:RN *1436:RN 24.004 
*END

*D_NET *321 0.00392026
*CONN
*I *1560:I I *D gf180mcu_fd_sc_mcu7t5v0__clkbuf_1
*I *1423:RN I *D gf180mcu_fd_sc_mcu7t5v0__dffrnq_1
*I *1533:Z O *D gf180mcu_fd_sc_mcu7t5v0__dlyb_1
*CAP
1 *1560:I 0.000479205
2 *1423:RN 0.000276408
3 *1533:Z 0
4 *321:4 0.000755614
5 *1423:RN *323:16 0.000795625
6 *1423:RN *326:23 0.000165664
7 *1423:RN *326:27 0.000699427
8 *1560:I *1534:I 1.34641e-06
9 dout[7] *1423:RN 9.26705e-05
10 dout[7] *1560:I 8.55242e-05
11 *1393:I0 *1423:RN 5.98631e-06
12 *1393:I0 *1560:I 0.000101052
13 *1393:S *1560:I 0.000356897
14 *1424:D *1560:I 0
15 *1587:I *1423:RN 1.50458e-05
16 *1588:I *1423:RN 8.40365e-05
17 *1588:I *1560:I 5.76063e-06
*RES
1 *1533:Z *321:4 4.5 
2 *321:4 *1423:RN 17.376 
3 *321:4 *1560:I 16.844 
*END

*D_NET *322 0.0072925
*CONN
*I *1442:RN I *D gf180mcu_fd_sc_mcu7t5v0__dffrnq_1
*I *1443:RN I *D gf180mcu_fd_sc_mcu7t5v0__dffrnq_1
*I *1444:RN I *D gf180mcu_fd_sc_mcu7t5v0__dffrnq_1
*I *1559:Z O *D gf180mcu_fd_sc_mcu7t5v0__buf_2
*CAP
1 *1442:RN 0.00021542
2 *1443:RN 0
3 *1444:RN 0.000255419
4 *1559:Z 0.000513891
5 *322:18 0.000308162
6 *322:16 0.000782055
7 *1444:RN *1514:I 0.000631714
8 *1444:RN *338:28 0.000139519
9 *322:16 *1334:A1 1.28252e-05
10 *322:16 *1514:I 0.000149703
11 *322:16 *338:28 7.90878e-06
12 *322:18 *1514:I 0.000286672
13 *322:18 *338:28 8.02109e-05
14 *393:I *1442:RN 1.52691e-05
15 *1324:B *1442:RN 3.29058e-05
16 *1324:B *322:16 0.000631786
17 *1421:D *322:16 3.93883e-05
18 *1421:CLK *322:16 0.000148743
19 *1422:CLK *322:16 0.000507693
20 *1425:D *322:16 6.73472e-06
21 *1441:CLK *322:16 4.52275e-06
22 *1442:D *1444:RN 8.90823e-06
23 *1531:I *322:16 0.000403189
24 *1558:I *322:16 0.000676378
25 *146:36 *1444:RN 1.75581e-05
26 *191:20 *322:16 0.000366483
27 *212:13 *1442:RN 0.000298184
28 *212:13 *322:16 0.000201598
29 *212:28 *1442:RN 0.000512303
30 *241:111 *1442:RN 3.73535e-05
*RES
1 *1559:Z *322:16 15.764 
2 *322:16 *322:18 0.836 
3 *322:18 *1444:RN 11.28 
4 *322:18 *1443:RN 9 
5 *322:16 *1442:RN 11.204 
*END

*D_NET *323 0.0106171
*CONN
*I *1422:RN I *D gf180mcu_fd_sc_mcu7t5v0__dffrnq_1
*I *1421:RN I *D gf180mcu_fd_sc_mcu7t5v0__dffrnq_1
*I *1559:I I *D gf180mcu_fd_sc_mcu7t5v0__buf_2
*I *1560:Z O *D gf180mcu_fd_sc_mcu7t5v0__clkbuf_1
*CAP
1 *1422:RN 0
2 *1421:RN 0
3 *1559:I 0.000305853
4 *1560:Z 0.00110596
5 *323:18 0.000487932
6 *323:16 0.00128804
7 *323:16 *1334:A1 2.39112e-05
8 *323:16 *1532:I 0.00042285
9 *323:16 *1533:I 2.6126e-05
10 *323:16 *326:27 0.000398929
11 *323:18 *1334:A1 1.30476e-05
12 dout[5] *1559:I 0.000527294
13 dout[5] *323:18 0.000228607
14 *406:I *1559:I 0.000464454
15 *1393:I0 *323:16 4.90608e-05
16 *1394:I0 *323:16 6.27869e-05
17 *1423:RN *323:16 0.000795625
18 *1440:RN *1559:I 0.000323441
19 *1474:I *323:16 4.14679e-05
20 *1557:I *1559:I 0.00118103
21 *1587:I *323:16 0.00205277
22 *1590:I *323:16 0
23 *7:28 *323:16 0.000107092
24 *260:12 *323:16 8.44278e-05
25 *283:8 *323:18 0
26 *285:27 *1559:I 0.000144235
27 *285:27 *323:16 0.000117556
28 *285:27 *323:18 0.000364602
*RES
1 *1560:Z *323:16 24.9 
2 *323:16 *323:18 2.204 
3 *323:18 *1559:I 18.744 
4 *323:18 *1421:RN 4.5 
5 *323:16 *1422:RN 4.5 
*END

*D_NET *324 0.00802995
*CONN
*I *1463:RN I *D gf180mcu_fd_sc_mcu7t5v0__dffrnq_1
*I *1561:I I *D gf180mcu_fd_sc_mcu7t5v0__buf_1
*I *1434:RN I *D gf180mcu_fd_sc_mcu7t5v0__dffrnq_1
*I *1533:I I *D gf180mcu_fd_sc_mcu7t5v0__dlyb_1
*I *1534:Z O *D gf180mcu_fd_sc_mcu7t5v0__dlyb_1
*CAP
1 *1463:RN 0.000371863
2 *1561:I 4.96825e-05
3 *1434:RN 0.000615447
4 *1533:I 0.000157544
5 *1534:Z 0
6 *324:23 0.000941333
7 *324:4 0.000805611
8 *324:23 *1393:I1 0.000363553
9 *351:I *324:23 0.000113696
10 *382:I *324:23 0.00158975
11 *1277:A3 *1434:RN 0.000123319
12 *1277:A3 *1463:RN 0.000247083
13 *1393:I0 *1533:I 8.94741e-05
14 *1393:I0 *324:23 4.87148e-05
15 *1393:S *1533:I 0.000326535
16 *1393:S *324:23 9.56415e-05
17 *1415:A1 *1463:RN 0
18 *1589:I *1533:I 0
19 *113:6 *1463:RN 5.9622e-05
20 *170:55 *1434:RN 0.000633297
21 *170:55 *324:23 0.000182542
22 *228:10 *1434:RN 0.000301135
23 *241:119 *1434:RN 0.000118665
24 *241:119 *1561:I 0.000137402
25 *241:119 *324:23 0.000462569
26 *276:192 *1463:RN 0
27 *296:116 *1434:RN 0.00016935
28 *323:16 *1533:I 2.6126e-05
*RES
1 *1534:Z *324:4 4.5 
2 *324:4 *1533:I 6.248 
3 *324:4 *324:23 16.448 
4 *324:23 *1434:RN 16.464 
5 *324:23 *1561:I 4.88 
6 *1434:RN *1463:RN 11.888 
*END

*D_NET *325 0.00409502
*CONN
*I *1433:RN I *D gf180mcu_fd_sc_mcu7t5v0__dffrnq_1
*I *1431:RN I *D gf180mcu_fd_sc_mcu7t5v0__dffrnq_1
*I *1432:RN I *D gf180mcu_fd_sc_mcu7t5v0__dffrnq_1
*I *1561:Z O *D gf180mcu_fd_sc_mcu7t5v0__buf_1
*CAP
1 *1433:RN 9.80713e-05
2 *1431:RN 0
3 *1432:RN 0.000275355
4 *1561:Z 0.000137289
5 *325:12 0.000384538
6 *325:8 0.000344543
7 *382:I *325:8 0.000121082
8 *382:I *325:12 1.9479e-05
9 *1251:I *1433:RN 0.000182263
10 *1251:I *325:12 0.000599552
11 *1274:A1 *325:12 0.000128884
12 *1277:A3 *1433:RN 1.97747e-05
13 *1352:A1 *325:8 0.000117245
14 *1352:A1 *325:12 1.46914e-05
15 *1375:A3 *1432:RN 0.000121378
16 *1433:D *1432:RN 7.53889e-05
17 *1460:D *1432:RN 8.55327e-05
18 *1464:D *1432:RN 1.87322e-05
19 *170:30 *1432:RN 9.18453e-05
20 *272:97 *325:8 0.000209438
21 *272:97 *325:12 0.000427267
22 *272:109 *325:12 0.000622671
*RES
1 *1561:Z *325:8 10.444 
2 *325:8 *325:12 7.312 
3 *325:12 *1432:RN 6.552 
4 *325:12 *1431:RN 4.5 
5 *325:8 *1433:RN 9.684 
*END

*D_NET *326 0.0113815
*CONN
*I *1424:RN I *D gf180mcu_fd_sc_mcu7t5v0__dffrnq_1
*I *1425:RN I *D gf180mcu_fd_sc_mcu7t5v0__dffrnq_1
*I *1532:I I *D gf180mcu_fd_sc_mcu7t5v0__dlyb_1
*I *1534:I I *D gf180mcu_fd_sc_mcu7t5v0__dlyb_1
*I *1535:Z O *D gf180mcu_fd_sc_mcu7t5v0__dlyb_1
*CAP
1 *1424:RN 3.72651e-05
2 *1425:RN 0
3 *1532:I 0.000800143
4 *1534:I 7.87988e-05
5 *1535:Z 0.000430148
6 *326:27 0.00118312
7 *326:23 0.000577157
8 *326:10 0.000665859
9 *1532:I *1334:A1 3.83835e-06
10 *1532:I *1514:I 5.99416e-05
11 *1532:I *337:43 0.000801905
12 dout[7] *326:10 0
13 dout[7] *326:23 0.000495697
14 *350:I *326:27 2.06694e-05
15 *361:I *1532:I 0.00170082
16 *1324:B *1532:I 0.000147143
17 *1335:A1 *1532:I 5.64071e-05
18 *1335:A2 *1532:I 6.39906e-05
19 *1335:B *1532:I 0.000185226
20 *1391:I0 *1532:I 0.000437072
21 *1423:RN *326:23 0.000165664
22 *1423:RN *326:27 0.000699427
23 *1442:D *1532:I 0.000199127
24 *1512:I *1532:I 0.000148585
25 *1512:I *326:27 0.000565919
26 *1531:I *1532:I 2.68309e-05
27 *1560:I *1534:I 1.34641e-06
28 *1587:I *326:10 0.000433289
29 *1587:I *326:23 0.000247009
30 *1587:I *326:27 2.53301e-05
31 *1588:I *326:27 0
32 *146:36 *1532:I 0.000181256
33 *208:251 *1532:I 5.8247e-07
34 *285:21 *1532:I 0.000120187
35 *323:16 *1532:I 0.00042285
36 *323:16 *326:27 0.000398929
*RES
1 *1535:Z *326:10 12.344 
2 *326:10 *1534:I 9.38 
3 *326:10 *326:23 6.856 
4 *326:23 *326:27 4.56 
5 *326:27 *1532:I 24.064 
6 *326:27 *1425:RN 4.5 
7 *326:23 *1424:RN 4.728 
*END

*D_NET *327 0.00957984
*CONN
*I *1362:A1 I *D gf180mcu_fd_sc_mcu7t5v0__aoi211_2
*I *1330:A1 I *D gf180mcu_fd_sc_mcu7t5v0__aoi21_1
*I *1326:A1 I *D gf180mcu_fd_sc_mcu7t5v0__aoi21_1
*I *1365:B2 I *D gf180mcu_fd_sc_mcu7t5v0__aoi221_2
*I *1338:A1 I *D gf180mcu_fd_sc_mcu7t5v0__aoi21_1
*I *1342:A1 I *D gf180mcu_fd_sc_mcu7t5v0__aoi21_1
*I *1536:Z O *D gf180mcu_fd_sc_mcu7t5v0__dlyb_1
*CAP
1 *1362:A1 0
2 *1330:A1 2.80769e-05
3 *1326:A1 0.000126072
4 *1365:B2 0.000312468
5 *1338:A1 0.000108036
6 *1342:A1 0
7 *1536:Z 0.000194748
8 *327:55 0.00020374
9 *327:53 0.000564231
10 *327:36 0.00121445
11 *327:20 0.000630947
12 *327:8 0.001105
13 *1326:A1 *335:49 0.000197316
14 *1330:A1 *335:49 1.20137e-05
15 *1338:A1 *338:28 0.000144285
16 *1365:B2 *1331:A1 0.000300836
17 *327:20 *338:28 1.26428e-05
18 *327:53 *1390:I1 0.000914495
19 *429:I *327:20 4.60889e-06
20 *441:I *327:53 0
21 *1328:A1 *327:53 7.19408e-05
22 *1328:A2 *1326:A1 0.000386421
23 *1330:A2 *1326:A1 5.17444e-05
24 *1330:A2 *327:55 2.58986e-05
25 *1332:A2 *1330:A1 0
26 *1332:A2 *327:53 0.000275926
27 *1332:A2 *327:55 0.000254736
28 *1332:B *327:8 0
29 *1338:A2 *1338:A1 5.62809e-05
30 *1342:A2 *327:20 4.10633e-05
31 *1343:A2 *1365:B2 0
32 *1343:A2 *327:53 0
33 *1344:A2 *327:20 1.0477e-05
34 *1362:A2 *1326:A1 7.95311e-05
35 *1362:A2 *327:55 5.77358e-05
36 *1365:A1 *1326:A1 0.000744636
37 *1368:A1 *327:20 0.000134762
38 *1368:A1 *327:36 2.11616e-05
39 *1368:A2 *327:36 1.2773e-05
40 *1369:A2 *327:20 1.87701e-05
41 *1371:B *1365:B2 0.000131651
42 *1374:B2 *327:20 0.000103413
43 *1421:D *327:53 4.945e-05
44 *144:52 *327:8 1.85367e-05
45 *144:52 *327:36 8.0352e-06
46 *147:22 *327:36 2.70562e-05
47 *172:22 *1365:B2 0.000149872
48 *172:22 *327:53 0.000164962
49 *270:37 *327:53 0.000424397
50 *290:34 *327:53 7.93519e-05
51 *290:34 *327:55 0.000105288
*RES
1 *1536:Z *327:8 5.868 
2 *327:8 *327:20 3.648 
3 *327:20 *1342:A1 4.5 
4 *327:20 *1338:A1 5.488 
5 *327:8 *327:36 6.856 
6 *327:36 *1365:B2 11.432 
7 *327:36 *327:53 9.516 
8 *327:53 *327:55 0.988 
9 *327:55 *1326:A1 7.312 
10 *327:55 *1330:A1 4.728 
11 *327:53 *1362:A1 4.5 
*END

*D_NET *328 0.0137656
*CONN
*I *1317:A1 I *D gf180mcu_fd_sc_mcu7t5v0__and2_1
*I *1302:A1 I *D gf180mcu_fd_sc_mcu7t5v0__and2_1
*I *1313:A1 I *D gf180mcu_fd_sc_mcu7t5v0__aoi21_1
*I *1353:A1 I *D gf180mcu_fd_sc_mcu7t5v0__aoi221_2
*I *1350:A1 I *D gf180mcu_fd_sc_mcu7t5v0__aoi211_1
*I *1308:A1 I *D gf180mcu_fd_sc_mcu7t5v0__aoi21_1
*I *1537:Z O *D gf180mcu_fd_sc_mcu7t5v0__dlyb_1
*CAP
1 *1317:A1 1.73425e-05
2 *1302:A1 5.00633e-05
3 *1313:A1 0.000143912
4 *1353:A1 0.000154574
5 *1350:A1 0
6 *1308:A1 0.000271952
7 *1537:Z 0
8 *328:60 0.00046417
9 *328:43 0.000926013
10 *328:16 0.000657166
11 *328:10 0.00069667
12 *328:6 0.000542219
13 *1302:A1 *1356:C 1.18942e-05
14 *1302:A1 *333:22 7.2647e-05
15 *1308:A1 *1308:B 0.000323568
16 *1313:A1 *1313:B 2.23477e-05
17 *1313:A1 *1327:A1 0.000181088
18 *1317:A1 *333:22 0.000126964
19 *1353:A1 *1353:C 8.02751e-06
20 *328:16 *1308:B 9.88736e-06
21 *328:60 *1327:A1 2.91799e-05
22 *353:I *328:10 3.17618e-05
23 *353:I *328:43 0.000236492
24 *1307:A1 *328:60 0.00021813
25 *1308:A2 *1308:A1 1.17512e-05
26 *1316:A1 *328:60 7.18111e-05
27 *1316:A2 *1313:A1 0.000248576
28 *1316:A2 *328:60 0.000292672
29 *1317:A2 *1302:A1 3.45972e-05
30 *1322:A2 *328:60 5.46459e-05
31 *1347:B *1353:A1 0.00101486
32 *1350:A2 *1308:A1 1.55463e-05
33 *1350:B *328:16 0.000143734
34 *1351:A2 *1308:A1 0.000226357
35 *1360:A2 *1302:A1 0.000387757
36 *1360:A2 *1317:A1 0.000242677
37 *1435:RN *1313:A1 0.000634928
38 *1435:RN *328:60 0.000201947
39 *1436:RN *328:43 8.30848e-05
40 *1437:D *328:43 0.000288724
41 *1445:RN *328:16 9.88736e-06
42 *1467:RN *328:16 2.23598e-06
43 *1468:I *328:43 0.000126077
44 *1520:I *1353:A1 0.000848028
45 *1537:I *328:16 0.000475066
46 *132:12 *328:60 0.00012749
47 *143:14 *328:60 0.00110314
48 *143:31 *328:60 3.80516e-05
49 *170:30 *1353:A1 3.83835e-06
50 *229:51 *1353:A1 0.00010294
51 *241:62 *328:10 4.32587e-06
52 *241:62 *328:16 2.86931e-05
53 *241:62 *328:43 4.40663e-05
54 *243:21 *328:16 0.000792474
55 *243:36 *328:10 0.000315319
56 *243:36 *328:16 0.000570077
57 *291:44 *328:10 2.41598e-05
*RES
1 *1537:Z *328:6 9 
2 *328:6 *328:10 1.52 
3 *328:10 *328:16 9.364 
4 *328:16 *1308:A1 6.932 
5 *328:16 *1350:A1 4.5 
6 *328:10 *1353:A1 12.116 
7 *328:6 *328:43 7.616 
8 *328:43 *1313:A1 6.628 
9 *328:43 *328:60 9.288 
10 *328:60 *1302:A1 9.988 
11 *328:60 *1317:A1 9.684 
*END

*D_NET *329 0.00059593
*CONN
*I *1465:D I *D gf180mcu_fd_sc_mcu7t5v0__dffrnq_1
*I *1538:Z O *D gf180mcu_fd_sc_mcu7t5v0__dlyc_1
*CAP
1 *1465:D 0.000174707
2 *1538:Z 0.000174707
3 *1465:D *1288:B 0.000211987
4 *1498:I *1465:D 4.58601e-06
5 *223:36 *1465:D 4.58601e-06
6 *305:12 *1465:D 2.53586e-05
*RES
1 *1538:Z *1465:D 10.52 
*END

*D_NET *330 0.0153384
*CONN
*I *1385:I1 I *D gf180mcu_fd_sc_mcu7t5v0__mux2_2
*I *1303:B I *D gf180mcu_fd_sc_mcu7t5v0__aoi21_1
*I *1347:C I *D gf180mcu_fd_sc_mcu7t5v0__aoi211_2
*I *1304:A1 I *D gf180mcu_fd_sc_mcu7t5v0__nand2_1
*I *1435:Q O *D gf180mcu_fd_sc_mcu7t5v0__dffrnq_1
*CAP
1 *1385:I1 0.000384252
2 *1303:B 0.000323983
3 *1347:C 0.000163035
4 *1304:A1 0.000982602
5 *1435:Q 0.000110218
6 *330:30 0.000935094
7 *330:10 0.00140362
8 *330:8 0.000595058
9 *1304:A1 *1350:C 0.000887042
10 *1304:A1 *340:18 0.00106431
11 *1385:I1 *1386:I1 2.57321e-05
12 *330:10 *1350:C 0.00115325
13 *330:10 *1386:I1 3.61387e-05
14 *330:10 *331:10 0.000275465
15 *330:30 *1386:I1 0.000477079
16 *353:I *1303:B 4.58243e-05
17 *402:I *1304:A1 8.75225e-05
18 *1262:I *1304:A1 0.000425895
19 *1303:A1 *1303:B 7.15613e-05
20 *1304:A2 *1304:A1 0.000780793
21 *1306:A1 *1303:B 8.08626e-05
22 *1313:A2 *330:8 0.000399782
23 *1328:B *330:8 6.44525e-05
24 *1347:B *1347:C 2.60034e-05
25 *1348:A2 *1304:A1 5.74125e-06
26 *1386:I0 *1385:I1 0.000388532
27 *1416:D *1385:I1 0.000317494
28 *1417:D *1303:B 0.000136402
29 *1435:RN *1385:I1 0.000414038
30 *1435:RN *330:30 0.000208478
31 *1436:D *1304:A1 2.2499e-05
32 *1446:D *1304:A1 1.08384e-05
33 *1447:D *1304:A1 0.000336769
34 *1459:CLK *1304:A1 0.000197957
35 *1494:I *1347:C 2.40842e-05
36 *136:32 *1347:C 4.58601e-06
37 *191:20 *1385:I1 0.00047149
38 *219:18 *1304:A1 0.000361468
39 *241:62 *1385:I1 8.25744e-05
40 *269:65 *1385:I1 9.60894e-06
41 *276:77 *1304:A1 9.09842e-05
42 *285:51 *1304:A1 0.000547096
43 *285:51 *1385:I1 6.7497e-05
44 *285:51 *330:10 0.000422422
45 *285:51 *330:30 8.28977e-05
46 *285:57 *1304:A1 0.000121667
47 *314:16 *1385:I1 0.000213726
*RES
1 *1435:Q *330:8 10.14 
2 *330:8 *330:10 4.028 
3 *330:10 *1304:A1 22.148 
4 *330:10 *1347:C 9.836 
5 *330:8 *330:30 2.812 
6 *330:30 *1303:B 11.508 
7 *330:30 *1385:I1 14.168 
*END

*D_NET *331 0.00826483
*CONN
*I *1308:B I *D gf180mcu_fd_sc_mcu7t5v0__aoi21_1
*I *1386:I1 I *D gf180mcu_fd_sc_mcu7t5v0__mux2_2
*I *1309:A1 I *D gf180mcu_fd_sc_mcu7t5v0__nand2_1
*I *1350:C I *D gf180mcu_fd_sc_mcu7t5v0__aoi211_1
*I *1436:Q O *D gf180mcu_fd_sc_mcu7t5v0__dffrnq_1
*CAP
1 *1308:B 0.000343717
2 *1386:I1 0.00020627
3 *1309:A1 7.71529e-05
4 *1350:C 0.000518293
5 *1436:Q 0
6 *331:10 0.000360651
7 *331:6 0.000315192
8 *1304:A1 *1350:C 0.000887042
9 *1308:A1 *1308:B 0.000323568
10 *1328:B *1309:A1 3.99001e-05
11 *1385:I1 *1386:I1 2.57321e-05
12 *1467:RN *1308:B 2.77354e-05
13 *1467:RN *1350:C 2.96621e-05
14 *1468:I *1309:A1 0.000233435
15 *219:10 *1350:C 0.000638186
16 *219:12 *1350:C 0.000223955
17 *219:18 *1350:C 0.000389149
18 *241:62 *1350:C 0.000332936
19 *241:62 *1386:I1 0.00122914
20 *241:62 *331:10 0.00011129
21 *328:16 *1308:B 9.88736e-06
22 *330:10 *1350:C 0.00115325
23 *330:10 *1386:I1 3.61387e-05
24 *330:10 *331:10 0.000275465
25 *330:30 *1386:I1 0.000477079
*RES
1 *1436:Q *331:6 9 
2 *331:6 *331:10 1.064 
3 *331:10 *1350:C 14.472 
4 *331:10 *1309:A1 9.684 
5 *331:6 *1386:I1 12.268 
6 *1350:C *1308:B 11.432 
*END

*D_NET *332 0.012772
*CONN
*I *1314:A1 I *D gf180mcu_fd_sc_mcu7t5v0__nand2_1
*I *1387:I1 I *D gf180mcu_fd_sc_mcu7t5v0__mux2_2
*I *1313:B I *D gf180mcu_fd_sc_mcu7t5v0__aoi21_1
*I *1353:C I *D gf180mcu_fd_sc_mcu7t5v0__aoi221_2
*I *1437:Q O *D gf180mcu_fd_sc_mcu7t5v0__dffrnq_1
*CAP
1 *1314:A1 0.000616318
2 *1387:I1 0.000206098
3 *1313:B 0.000499583
4 *1353:C 0.000416928
5 *1437:Q 0
6 *332:40 0.00116048
7 *332:8 0.00113855
8 *332:6 0.000560097
9 *1313:B *1327:A1 8.0352e-06
10 *404:I *1314:A1 4.01619e-05
11 *404:I *1353:C 0.00154935
12 *404:I *332:8 0.000664507
13 *404:I *332:40 0.000877869
14 *405:I *1314:A1 1.19364e-05
15 *424:I *1314:A1 4.09767e-05
16 *424:I *1387:I1 0.000143955
17 *424:I *332:40 9.15947e-05
18 *1313:A1 *1313:B 2.23477e-05
19 *1313:A2 *1353:C 0.00104566
20 *1316:A1 *1353:C 8.16375e-05
21 *1347:B *1353:C 2.79e-05
22 *1353:A1 *1353:C 8.02751e-06
23 *1354:A2 *1353:C 8.18282e-05
24 *1386:I0 *1314:A1 0.000161528
25 *1386:S *1314:A1 5.70683e-05
26 *1435:RN *1313:B 0.00030965
27 *1481:I *332:40 2.02488e-05
28 *1495:I *1313:B 9.88736e-06
29 *1496:I *1314:A1 8.50647e-05
30 *132:16 *1313:B 0.000213014
31 *134:26 *1314:A1 5.957e-05
32 *134:26 *332:40 7.87786e-05
33 *143:14 *1313:B 0.000225421
34 *170:30 *1353:C 0.000300828
35 *191:20 *1314:A1 0.000887393
36 *191:20 *1387:I1 0.000146984
37 *219:10 *1353:C 0.000152198
38 *232:56 *1314:A1 8.24926e-05
39 *241:88 *1387:I1 0.000361309
40 *243:67 *1353:C 0.000176646
41 *274:159 *1314:A1 3.36994e-05
42 *289:14 *332:8 0
43 *289:14 *332:40 0
44 *292:78 *1353:C 1.80494e-06
45 *314:16 *1314:A1 0.000114557
*RES
1 *1437:Q *332:6 9 
2 *332:6 *332:8 1.9 
3 *332:8 *1353:C 15.384 
4 *332:8 *1313:B 13.104 
5 *332:6 *332:40 3.116 
6 *332:40 *1387:I1 19.976 
7 *332:40 *1314:A1 23.396 
*END

*D_NET *333 0.0179208
*CONN
*I *1388:I1 I *D gf180mcu_fd_sc_mcu7t5v0__mux2_2
*I *1318:B I *D gf180mcu_fd_sc_mcu7t5v0__aoi21_1
*I *1319:A1 I *D gf180mcu_fd_sc_mcu7t5v0__nand2_1
*I *1356:C I *D gf180mcu_fd_sc_mcu7t5v0__aoi221_2
*I *1438:Q O *D gf180mcu_fd_sc_mcu7t5v0__dffrnq_1
*CAP
1 *1388:I1 7.22933e-05
2 *1318:B 0.000226197
3 *1319:A1 0.00281289
4 *1356:C 0.000252968
5 *1438:Q 0.000271974
6 *333:22 0.00341155
7 *333:16 0.000870845
8 *333:14 0.00064322
9 *1318:B *1322:B 0
10 *392:I *1356:C 6.74954e-06
11 *392:I *1388:I1 0.000479359
12 *392:I *333:16 0.00132243
13 *392:I *333:22 0.000602303
14 *1302:A1 *1356:C 1.18942e-05
15 *1302:A1 *333:22 7.2647e-05
16 *1312:A1 *1356:C 1.33331e-05
17 *1317:A1 *333:22 0.000126964
18 *1317:A2 *1356:C 1.866e-05
19 *1317:A2 *333:22 0.00050705
20 *1318:A2 *1318:B 9.59587e-06
21 *1318:A2 *333:22 2.69281e-06
22 *1324:A2 *333:16 0
23 *1324:A2 *333:22 0
24 *1328:B *1356:C 3.37994e-05
25 *1356:A2 *1356:C 0.000296031
26 *1360:A2 *1356:C 0
27 *1360:A2 *333:22 1.46914e-05
28 *1387:S *1388:I1 0.000422525
29 *1419:D *333:14 0.000342983
30 *1438:D *333:16 0.000448651
31 *1438:D *333:22 0.000459983
32 *1496:I *333:14 7.06111e-05
33 *132:12 *333:22 7.33578e-06
34 *144:25 *1356:C 0.000262905
35 *172:22 *1319:A1 0
36 *191:20 *333:14 5.28599e-06
37 *208:147 *1318:B 9.17202e-06
38 *208:151 *1318:B 8.6334e-05
39 *208:265 *1319:A1 0.000346256
40 *208:301 *1319:A1 0.000114437
41 *272:63 *1319:A1 0.00196754
42 *272:78 *1319:A1 0.0011886
43 *274:159 *1388:I1 7.83779e-05
44 *285:51 *1388:I1 2.96621e-05
*RES
1 *1438:Q *333:14 11.28 
2 *333:14 *333:16 3.572 
3 *333:16 *333:22 8.3 
4 *333:22 *1356:C 15.552 
5 *333:22 *1319:A1 32.12 
6 *333:16 *1318:B 10.292 
7 *333:14 *1388:I1 10.52 
*END

*D_NET *334 0.0173323
*CONN
*I *1323:A1 I *D gf180mcu_fd_sc_mcu7t5v0__nand2_1
*I *1389:I1 I *D gf180mcu_fd_sc_mcu7t5v0__mux2_2
*I *1359:C I *D gf180mcu_fd_sc_mcu7t5v0__aoi211_2
*I *1322:B I *D gf180mcu_fd_sc_mcu7t5v0__aoi21_1
*I *1439:Q O *D gf180mcu_fd_sc_mcu7t5v0__dffrnq_1
*CAP
1 *1323:A1 0.00233122
2 *1389:I1 0
3 *1359:C 1.54393e-05
4 *1322:B 0.000294001
5 *1439:Q 0
6 *334:24 0.00144239
7 *334:14 0.00141438
8 *334:4 0.00261265
9 *1323:A1 *335:12 0
10 *1323:A1 *339:10 0.0011862
11 *369:I *1323:A1 0
12 *392:I *334:24 0
13 *421:I *1323:A1 0.000324574
14 *421:I *334:14 6.64203e-05
15 *423:I *334:24 3.66906e-05
16 *1318:A2 *1322:B 0.000261917
17 *1318:B *1322:B 0
18 *1324:B *1323:A1 0.00103502
19 *1328:A1 *1323:A1 7.43595e-05
20 *1328:B *1323:A1 0.000111224
21 *1335:B *1323:A1 0
22 *1391:I0 *1323:A1 1.4689e-05
23 *1393:S *1323:A1 9.37296e-06
24 *1420:D *1323:A1 0.000168675
25 *1420:D *334:14 8.69929e-05
26 *1437:RN *1322:B 4.15199e-05
27 *1438:D *1322:B 0.000294143
28 *1438:D *1359:C 0.000121332
29 *1438:D *334:24 0
30 *1438:RN *334:24 4.1352e-05
31 *1439:D *334:24 0.000802233
32 *1441:RN *1323:A1 1.3102e-05
33 *1489:I *1323:A1 6.77807e-05
34 *1496:I *334:24 0.00013012
35 *1497:I *334:24 2.63147e-05
36 *1531:I *1323:A1 0
37 *146:36 *1323:A1 0.0030866
38 *208:147 *1322:B 0
39 *208:205 *1323:A1 0
40 *208:205 *334:24 0
41 *243:79 *1323:A1 3.47578e-06
42 *267:18 *334:24 6.5524e-06
43 *274:159 *1323:A1 2.6897e-05
44 *274:159 *334:14 0.000801791
45 *276:220 *1323:A1 9.88736e-06
46 *285:51 *334:14 0.000361945
47 *318:10 *1323:A1 1.09943e-05
*RES
1 *1439:Q *334:4 4.5 
2 *334:4 *334:14 12.268 
3 *334:14 *334:24 16.068 
4 *334:24 *1322:B 6.932 
5 *334:24 *1359:C 4.88 
6 *334:14 *1389:I1 4.5 
7 *334:4 *1323:A1 34.476 
*END

*D_NET *335 0.0151113
*CONN
*I *1362:C I *D gf180mcu_fd_sc_mcu7t5v0__aoi211_2
*I *1326:B I *D gf180mcu_fd_sc_mcu7t5v0__aoi21_1
*I *1327:A1 I *D gf180mcu_fd_sc_mcu7t5v0__nand2_1
*I *1390:I1 I *D gf180mcu_fd_sc_mcu7t5v0__mux2_2
*I *1440:Q O *D gf180mcu_fd_sc_mcu7t5v0__dffrnq_1
*CAP
1 *1362:C 0
2 *1326:B 3.62646e-06
3 *1327:A1 0.00125865
4 *1390:I1 0.00031762
5 *1440:Q 0.00129935
6 *335:49 0.00170003
7 *335:31 0.000475033
8 *335:12 0.00165425
9 *335:31 *1330:B 1.50659e-05
10 *335:49 *1330:B 0.000101067
11 *355:I *335:12 8.22887e-05
12 *421:I *335:12 0
13 *1302:A2 *1327:A1 0.000344707
14 *1307:A1 *1327:A1 0.000182807
15 *1313:A1 *1327:A1 0.000181088
16 *1313:A2 *1327:A1 0.000161313
17 *1313:B *1327:A1 8.0352e-06
18 *1315:A2 *1327:A1 0.000343551
19 *1316:A1 *1327:A1 0.000926694
20 *1316:A2 *1327:A1 0.000584087
21 *1323:A1 *335:12 0
22 *1326:A1 *335:49 0.000197316
23 *1328:A2 *335:49 0.000379274
24 *1328:B *1327:A1 0.000132465
25 *1328:B *335:49 0.0001908
26 *1330:A1 *335:49 1.20137e-05
27 *1332:B *1390:I1 0.000193727
28 *1359:B *335:49 0.000304978
29 *1362:A2 *335:49 0.000303528
30 *1362:B *1390:I1 0.00035108
31 *1362:B *335:31 3.5548e-05
32 *1365:A1 *1390:I1 0.000146748
33 *1365:A1 *335:49 1.2018e-05
34 *1437:RN *335:31 0.000190633
35 *1437:RN *335:49 0.000608946
36 *1440:RN *335:12 0
37 *1495:I *1327:A1 1.45054e-05
38 *108:43 *1326:B 8.55327e-05
39 *108:43 *1327:A1 0.000322639
40 *143:31 *1327:A1 4.33897e-05
41 *144:52 *1326:B 5.77573e-05
42 *144:52 *1327:A1 0.000399782
43 *208:123 *335:49 0.000122228
44 *267:18 *335:49 8.55327e-05
45 *270:37 *1390:I1 2.27181e-05
46 *274:159 *335:12 2.24437e-05
47 *290:10 *1390:I1 9.78219e-05
48 *290:34 *1390:I1 0.000194942
49 *317:24 *335:12 0
50 *327:53 *1390:I1 0.000914495
51 *328:60 *1327:A1 2.91799e-05
*RES
1 *1440:Q *335:12 15.46 
2 *335:12 *1390:I1 13.256 
3 *335:12 *335:31 5.032 
4 *335:31 *335:49 23.7 
5 *335:49 *1327:A1 16.128 
6 *335:49 *1326:B 4.728 
7 *335:31 *1362:C 4.5 
*END

*D_NET *336 0.0104528
*CONN
*I *1391:I1 I *D gf180mcu_fd_sc_mcu7t5v0__mux2_2
*I *1365:C I *D gf180mcu_fd_sc_mcu7t5v0__aoi221_2
*I *1331:A1 I *D gf180mcu_fd_sc_mcu7t5v0__nand2_1
*I *1330:B I *D gf180mcu_fd_sc_mcu7t5v0__aoi21_1
*I *1441:Q O *D gf180mcu_fd_sc_mcu7t5v0__dffrnq_1
*CAP
1 *1391:I1 0.000233385
2 *1365:C 0
3 *1331:A1 0.000496211
4 *1330:B 0.000178229
5 *1441:Q 0
6 *336:31 0.000786506
7 *336:16 0.000893216
8 *336:4 0.000658076
9 *406:I *1391:I1 4.45976e-05
10 *406:I *336:16 0.000260446
11 *1305:B *1331:A1 0
12 *1328:A1 *336:31 0.000142801
13 *1332:A2 *1330:B 0.000378181
14 *1332:A2 *336:16 9.12749e-05
15 *1338:A2 *1331:A1 4.41305e-05
16 *1362:A2 *1330:B 0.000166463
17 *1362:B *1330:B 8.39112e-05
18 *1365:A2 *1331:A1 6.817e-05
19 *1365:A2 *336:31 0.000294406
20 *1365:B1 *1331:A1 0.000260718
21 *1365:B2 *1331:A1 0.000300836
22 *1371:B *1331:A1 0.000616474
23 *1372:A2 *1331:A1 0.000371749
24 *1391:S *1391:I1 1.19438e-05
25 *1437:RN *1330:B 4.55537e-05
26 *1437:RN *336:16 6.2915e-05
27 *1441:D *336:16 5.88438e-05
28 *1502:I *1331:A1 3.96688e-05
29 *1518:I *336:31 0.000870495
30 *1531:I *1391:I1 1.73591e-05
31 *1531:I *336:16 2.15841e-05
32 *108:43 *1331:A1 9.50296e-06
33 *108:43 *336:31 0.000469009
34 *144:52 *336:31 3.83835e-06
35 *172:22 *1331:A1 2.82519e-05
36 *172:22 *336:16 2.71882e-05
37 *207:12 *1331:A1 4.29636e-06
38 *243:67 *1331:A1 0.000344521
39 *243:67 *336:16 3.71997e-05
40 *243:67 *336:31 5.77315e-05
41 *266:20 *1331:A1 0.00144801
42 *270:37 *336:16 3.40638e-05
43 *274:81 *1331:A1 0.000117518
44 *274:155 *1331:A1 0.000199473
45 *290:10 *336:31 4.71425e-05
46 *312:14 *1331:A1 1.08231e-05
47 *335:31 *1330:B 1.50659e-05
48 *335:49 *1330:B 0.000101067
*RES
1 *1441:Q *336:4 4.5 
2 *336:4 *336:16 12.496 
3 *336:16 *1330:B 6.704 
4 *336:16 *336:31 12.496 
5 *336:31 *1331:A1 29.796 
6 *336:31 *1365:C 4.5 
7 *336:4 *1391:I1 5.944 
*END

*D_NET *337 0.0149506
*CONN
*I *1392:I1 I *D gf180mcu_fd_sc_mcu7t5v0__mux2_2
*I *1333:B I *D gf180mcu_fd_sc_mcu7t5v0__aoi21_1
*I *1368:C I *D gf180mcu_fd_sc_mcu7t5v0__aoi211_2
*I *1334:A1 I *D gf180mcu_fd_sc_mcu7t5v0__nand2_1
*I *1442:Q O *D gf180mcu_fd_sc_mcu7t5v0__dffrnq_1
*CAP
1 *1392:I1 0.000439771
2 *1333:B 0.000103386
3 *1368:C 0.00020221
4 *1334:A1 0.000675436
5 *1442:Q 0
6 *337:43 0.000921385
7 *337:29 0.00146183
8 *337:4 0.0010817
9 *1334:A1 *1514:I 0.000344977
10 *337:43 *1514:I 0.000449676
11 *350:I *1392:I1 0.000127097
12 *355:I *1334:A1 0.000100721
13 *361:I *1334:A1 0.000865649
14 *406:I *1333:B 8.84892e-05
15 *406:I *337:43 0.000762796
16 *451:I *337:29 0.000533242
17 *1332:B *1368:C 0.00112947
18 *1333:A1 *1368:C 1.39349e-05
19 *1335:A1 *337:43 6.33531e-06
20 *1335:A2 *1368:C 0.000253849
21 *1335:A2 *337:43 0.000295859
22 *1371:B *1368:C 0.000109268
23 *1392:I0 *1392:I1 0.000127097
24 *1422:CLK *1334:A1 0.000142292
25 *1425:D *337:29 5.07702e-05
26 *1442:D *337:43 4.93579e-05
27 *1512:I *1334:A1 1.3758e-05
28 *1531:I *1334:A1 1.12959e-05
29 *1532:I *1334:A1 3.83835e-06
30 *1532:I *337:43 0.000801905
31 *1558:I *1334:A1 5.3491e-05
32 *170:30 *1368:C 2.96621e-05
33 *213:21 *337:29 0.000113945
34 *248:89 *337:29 0.000166432
35 *270:37 *1333:B 5.32804e-05
36 *274:155 *1368:C 0.00147511
37 *274:155 *337:43 0.000316179
38 *276:192 *1333:B 0.000362287
39 *283:8 *1334:A1 0.000706228
40 *284:24 *337:43 0.000456851
41 *322:16 *1334:A1 1.28252e-05
42 *323:16 *1334:A1 2.39112e-05
43 *323:18 *1334:A1 1.30476e-05
*RES
1 *1442:Q *337:4 4.5 
2 *337:4 *1334:A1 20.112 
3 *337:4 *337:29 12.268 
4 *337:29 *337:43 19.58 
5 *337:43 *1368:C 13.484 
6 *337:43 *1333:B 10.292 
7 *337:29 *1392:I1 15.324 
*END

*D_NET *338 0.013875
*CONN
*I *1393:I1 I *D gf180mcu_fd_sc_mcu7t5v0__mux2_2
*I *1339:A1 I *D gf180mcu_fd_sc_mcu7t5v0__nand2_1
*I *1371:C I *D gf180mcu_fd_sc_mcu7t5v0__aoi211_2
*I *1338:B I *D gf180mcu_fd_sc_mcu7t5v0__aoi21_1
*I *1443:Q O *D gf180mcu_fd_sc_mcu7t5v0__dffrnq_1
*CAP
1 *1393:I1 0.00103802
2 *1339:A1 0.000112266
3 *1371:C 0.000222309
4 *1338:B 0
5 *1443:Q 0.000144766
6 *338:39 0.000446049
7 *338:28 0.00103896
8 *338:12 0.00211028
9 *1339:A1 *1342:B 5.57316e-05
10 *338:12 *1514:I 7.39173e-05
11 *338:28 *1342:B 0.00030072
12 *338:28 *1514:I 0.00102594
13 *338:39 *1342:B 0.000194896
14 *361:I *338:12 7.88867e-05
15 *412:I *338:28 0
16 *429:I *338:28 4.54374e-05
17 *1338:A1 *338:28 0.000144285
18 *1338:A2 *1371:C 0.000807972
19 *1338:A2 *338:39 3.77294e-06
20 *1344:A2 *338:28 0.000451209
21 *1371:B *1371:C 7.83779e-05
22 *1424:D *1393:I1 0.000368169
23 *1425:D *338:28 0.000530068
24 *1443:D *338:28 0.00029812
25 *1444:RN *338:28 0.000139519
26 *191:34 *1393:I1 0.0018343
27 *191:34 *338:12 0.000292326
28 *248:89 *338:28 4.64641e-05
29 *266:20 *1371:C 5.03416e-05
30 *270:10 *338:28 2.22939e-05
31 *274:97 *1339:A1 0.000250545
32 *274:97 *1371:C 0.000807687
33 *274:108 *1339:A1 9.34817e-05
34 *276:192 *338:28 0.000303596
35 *322:16 *338:28 7.90878e-06
36 *322:18 *338:28 8.02109e-05
37 *324:23 *1393:I1 0.000363553
38 *327:20 *338:28 1.26428e-05
*RES
1 *1443:Q *338:12 14.564 
2 *338:12 *338:28 27.12 
3 *338:28 *1338:B 4.5 
4 *338:28 *338:39 1.292 
5 *338:39 *1371:C 7.844 
6 *338:39 *1339:A1 5.944 
7 *338:12 *1393:I1 22.164 
*END

*D_NET *339 0.00759623
*CONN
*I *1394:I1 I *D gf180mcu_fd_sc_mcu7t5v0__mux2_2
*I *1343:A1 I *D gf180mcu_fd_sc_mcu7t5v0__nand2_1
*I *1342:B I *D gf180mcu_fd_sc_mcu7t5v0__aoi21_1
*I *1444:Q O *D gf180mcu_fd_sc_mcu7t5v0__dffrnq_1
*CAP
1 *1394:I1 6.98969e-05
2 *1343:A1 0
3 *1342:B 0.000776349
4 *1444:Q 0.000411476
5 *339:12 0.0010374
6 *339:10 0.000742427
7 *358:I *1342:B 7.67081e-05
8 *1286:A2 *1342:B 6.84574e-06
9 *1323:A1 *339:10 0.0011862
10 *1339:A1 *1342:B 5.57316e-05
11 *1393:S *1394:I1 1.59264e-05
12 *1424:CLK *339:10 3.33507e-05
13 *1444:D *1342:B 0
14 *1444:CLK *1342:B 0.000135298
15 *1444:CLK *339:12 2.72007e-05
16 *1463:D *1342:B 0.000538392
17 *1463:D *339:12 0.000137329
18 *1475:I *1342:B 0.000146685
19 *1475:I *339:12 0.000145308
20 *1489:I *339:10 0.000626531
21 *113:6 *1342:B 0
22 *146:36 *339:10 0.000194531
23 *208:279 *339:10 0.000219919
24 *208:279 *339:12 0.000219653
25 *212:28 *339:10 0.00012749
26 *215:10 *339:10 1.65377e-05
27 *215:10 *339:12 6.73066e-06
28 *274:108 *1342:B 0.000143758
29 *284:31 *1394:I1 2.9378e-06
30 *338:28 *1342:B 0.00030072
31 *338:39 *1342:B 0.000194896
*RES
1 *1444:Q *339:10 14.016 
2 *339:10 *339:12 2.356 
3 *339:12 *1342:B 15.384 
4 *339:12 *1343:A1 9 
5 *339:10 *1394:I1 9.38 
*END

*D_NET *340 0.0148626
*CONN
*I *1376:A2 I *D gf180mcu_fd_sc_mcu7t5v0__aoi21_1
*I *1401:A1 I *D gf180mcu_fd_sc_mcu7t5v0__aoi211_1
*I *1517:I I *D gf180mcu_fd_sc_mcu7t5v0__dlyb_1
*I *1459:Q O *D gf180mcu_fd_sc_mcu7t5v0__dffsnq_1
*CAP
1 *1376:A2 0.000443047
2 *1401:A1 0
3 *1517:I 0
4 *1459:Q 0.000554786
5 *340:37 0.00117426
6 *340:18 0.001286
7 *1376:A2 *1515:I 0.000216011
8 *1376:A2 *343:27 1.87525e-05
9 *1290:A2 *1376:A2 0.000341581
10 *1304:A1 *340:18 0.00106431
11 *1398:I1 *340:18 0.000181473
12 *1398:I1 *340:37 0.00134408
13 *1398:S *340:18 2.96621e-05
14 *1400:A2 *340:37 0.00017806
15 *1401:A2 *340:37 2.19498e-05
16 *1402:A1 *340:37 0.000796076
17 *1402:A2 *340:37 0.000348919
18 *1407:B2 *1376:A2 2.9378e-06
19 *1428:D *340:37 0.00018853
20 *1428:CLK *340:37 0.000988472
21 *1436:D *340:18 0.000270495
22 *1447:D *340:18 0.000216426
23 *1447:CLK *340:18 0.000225787
24 *1447:CLK *340:37 0.000141171
25 *110:33 *1376:A2 0.000478896
26 *123:16 *1376:A2 0.000963208
27 *123:16 *340:37 2.6126e-05
28 *192:8 *340:37 0.000201027
29 *208:15 *1376:A2 0.000181006
30 *208:19 *1376:A2 0
31 *219:18 *340:18 0.000637928
32 *231:22 *1376:A2 0.000296996
33 *269:10 *340:18 0.000317841
34 *269:10 *340:37 6.22397e-05
35 *274:14 *1376:A2 2.98136e-05
36 *274:34 *1376:A2 0.000287708
37 *276:46 *340:37 3.34702e-05
38 *276:147 *1376:A2 3.6081e-05
39 *287:20 *1376:A2 2.4127e-05
40 *290:151 *340:37 0.000634389
41 *291:79 *340:37 2.23783e-05
42 *293:54 *1376:A2 0.000323008
43 *293:54 *340:37 0.000273519
*RES
1 *1459:Q *340:18 20.568 
2 *340:18 *1517:I 4.5 
3 *340:18 *340:37 19.564 
4 *340:37 *1401:A1 4.5 
5 *340:37 *1376:A2 19.656 
*END

*D_NET *341 0.00782739
*CONN
*I *1408:A2 I *D gf180mcu_fd_sc_mcu7t5v0__oai31_1
*I *1516:I I *D gf180mcu_fd_sc_mcu7t5v0__dlyb_1
*I *1460:Q O *D gf180mcu_fd_sc_mcu7t5v0__dffrnq_1
*CAP
1 *1408:A2 8.05649e-05
2 *1516:I 0.000313936
3 *1460:Q 0.00117847
4 *341:14 0.00157297
5 *1516:I *1255:I 0.000186915
6 *1516:I *344:56 0.000304077
7 *341:14 *1293:A1 0.000276717
8 *341:14 *1293:A2 5.12837e-05
9 *341:14 *344:60 2.61904e-05
10 *1273:A1 *1408:A2 0.000132067
11 *1273:A1 *1516:I 0.000533181
12 *1273:A2 *341:14 8.17438e-05
13 *1296:A3 *1516:I 8.84331e-05
14 *1299:A2 *341:14 5.99677e-05
15 *1375:A2 *1408:A2 0.000189892
16 *1396:A2 *341:14 0.000469112
17 *1410:A2 *1408:A2 0.00011382
18 *1460:CLK *341:14 0.000123553
19 *1464:D *341:14 1.98882e-05
20 *1466:D *341:14 2.36611e-06
21 *1488:I *1408:A2 0.00018435
22 *1601:I *1516:I 3.40822e-05
23 *86:20 *341:14 0.000414529
24 *100:16 *341:14 0.000340309
25 *100:31 *341:14 8.886e-05
26 *100:54 *341:14 5.01988e-05
27 *208:457 *341:14 0
28 *210:17 *341:14 4.47503e-06
29 *225:20 *1408:A2 1.21417e-05
30 *239:97 *341:14 0.000230957
31 *288:26 *341:14 0.000662346
*RES
1 *1460:Q *341:14 24.064 
2 *341:14 *1516:I 16.996 
3 *341:14 *1408:A2 14.868 
*END

*D_NET *342 0.0138003
*CONN
*I *1345:A2 I *D gf180mcu_fd_sc_mcu7t5v0__nor2_1
*I *1379:A1 I *D gf180mcu_fd_sc_mcu7t5v0__nor3_1
*I *1538:I I *D gf180mcu_fd_sc_mcu7t5v0__dlyc_1
*I *1461:Q O *D gf180mcu_fd_sc_mcu7t5v0__dffrnq_1
*CAP
1 *1345:A2 4.59566e-05
2 *1379:A1 0.000974712
3 *1538:I 0.000391372
4 *1461:Q 2.89165e-05
5 *342:30 0.00138312
6 *1336:A1 *1379:A1 7.4219e-06
7 *1357:A2 *1379:A1 0.00069068
8 *1369:A1 *1379:A1 2.28606e-05
9 *1369:B *342:30 0.000311006
10 *1372:A2 *1345:A2 8.5254e-05
11 *1372:A2 *342:30 0.000104569
12 *1372:B *1379:A1 0.00136208
13 *1373:A2 *1379:A1 0.000444837
14 *1374:A1 *1379:A1 2.293e-05
15 *1374:B2 *1379:A1 0.000305446
16 *1452:D *1379:A1 0.000482648
17 *1453:D *1379:A1 4.62455e-05
18 *1454:D *1379:A1 0.000232705
19 *1548:I *1345:A2 0.000241393
20 *1548:I *342:30 0.000916568
21 *1571:I *342:30 0
22 *1598:I *1379:A1 0.000143621
23 *120:71 *1379:A1 6.04444e-06
24 *122:20 *1379:A1 0.000831834
25 *122:20 *342:30 0.000757566
26 *206:43 *1379:A1 0.000613002
27 *235:22 *1538:I 0.000177366
28 *235:22 *342:30 1.26395e-05
29 *248:48 *342:30 5.14116e-06
30 *265:42 *1379:A1 1.01076e-05
31 *281:10 *1379:A1 0.00149372
32 *281:29 *1379:A1 0.000132786
33 *289:134 *1379:A1 9.88857e-05
34 *296:36 *342:30 4.2318e-06
35 *298:14 *342:30 0.000668098
36 *298:65 *1538:I 0.000384288
37 *298:65 *342:30 0.00031512
38 *304:12 *342:30 4.51576e-05
*RES
1 *1461:Q *1538:I 9.988 
2 *1538:I *342:30 23.928 
3 *342:30 *1379:A1 32.06 
4 *342:30 *1345:A2 9.684 
*END

*D_NET *343 0.00784437
*CONN
*I *1403:C I *D gf180mcu_fd_sc_mcu7t5v0__oai211_1
*I *1405:A1 I *D gf180mcu_fd_sc_mcu7t5v0__oai21_1
*I *1515:I I *D gf180mcu_fd_sc_mcu7t5v0__dlyb_1
*I *1462:Q O *D gf180mcu_fd_sc_mcu7t5v0__dffrnq_1
*CAP
1 *1403:C 0
2 *1405:A1 0.000291935
3 *1515:I 0.000151641
4 *1462:Q 0.000690211
5 *343:27 0.000365271
6 *343:12 0.000915188
7 *1284:A1 *1405:A1 0.00019058
8 *1292:A1 *343:12 0.000483787
9 *1292:A2 *343:12 9.36366e-05
10 *1305:B *343:12 0.000173395
11 *1376:A2 *1515:I 0.000216011
12 *1376:A2 *343:27 1.87525e-05
13 *1405:B *1405:A1 5.71282e-05
14 *1407:B2 *343:27 0.000462312
15 *1407:C *343:12 0.000134775
16 *1469:I *343:12 5.09739e-06
17 *118:14 *1405:A1 3.18793e-05
18 *123:16 *343:27 0.000305351
19 *123:45 *343:12 0.000355722
20 *196:10 *1405:A1 2.94419e-05
21 *198:26 *343:12 3.83835e-06
22 *208:11 *343:12 5.43628e-05
23 *208:15 *1515:I 2.67869e-05
24 *208:15 *343:12 9.69716e-05
25 *208:19 *1405:A1 6.24439e-06
26 *208:19 *1515:I 6.20599e-07
27 *208:371 *1515:I 6.82528e-06
28 *231:22 *1515:I 1.97747e-05
29 *231:22 *343:27 1.3493e-05
30 *274:14 *1405:A1 0.00029807
31 *276:14 *343:12 0.000366133
32 *276:20 *1405:A1 0.0003605
33 *276:147 *1405:A1 9.31273e-05
34 *287:20 *1515:I 9.41542e-05
35 *287:20 *343:12 8.03145e-05
36 *293:14 *1405:A1 8.84331e-05
37 *293:22 *1405:A1 0.000680244
38 *302:10 *343:12 0.000582363
*RES
1 *1462:Q *343:12 15.916 
2 *343:12 *1515:I 10.216 
3 *343:12 *343:27 5.792 
4 *343:27 *1405:A1 17.3 
5 *343:27 *1403:C 4.5 
*END

*D_NET *344 0.0129779
*CONN
*I *1412:A1 I *D gf180mcu_fd_sc_mcu7t5v0__aoi22_1
*I *1408:A1 I *D gf180mcu_fd_sc_mcu7t5v0__oai31_1
*I *1375:A1 I *D gf180mcu_fd_sc_mcu7t5v0__nor3_1
*I *1293:A2 I *D gf180mcu_fd_sc_mcu7t5v0__or3_1
*I *1255:I I *D gf180mcu_fd_sc_mcu7t5v0__clkinv_1
*I *1285:B I *D gf180mcu_fd_sc_mcu7t5v0__oai21_1
*I *1463:Q O *D gf180mcu_fd_sc_mcu7t5v0__dffrnq_1
*CAP
1 *1412:A1 2.14582e-05
2 *1408:A1 6.46684e-05
3 *1375:A1 7.86573e-05
4 *1293:A2 0.000180142
5 *1255:I 0.00052907
6 *1285:B 5.67437e-05
7 *1463:Q 7.00474e-05
8 *344:60 0.000413333
9 *344:56 0.000823818
10 *344:31 0.00115508
11 *344:27 0.00106246
12 *344:8 0.00114639
13 *1293:A2 *1293:A1 7.17876e-05
14 *380:I *344:27 0.000594387
15 *380:I *344:31 7.97597e-05
16 *1273:A1 *1255:I 3.47209e-05
17 *1273:A1 *1375:A1 7.47441e-05
18 *1296:A2 *1412:A1 2.64863e-05
19 *1296:A3 *1255:I 0.000322044
20 *1299:A2 *1293:A2 0.000200744
21 *1300:A2 *344:27 4.18918e-05
22 *1301:A2 *344:27 0.000369664
23 *1346:A1 *344:27 3.49135e-06
24 *1349:A2 *344:27 0.0002123
25 *1375:A2 *1375:A1 0.000110886
26 *1377:A2 *1375:A1 3.9293e-05
27 *1408:A3 *1375:A1 0.000192577
28 *1412:A2 *344:27 0.00013774
29 *1412:B1 *1408:A1 0.000157023
30 *1412:B1 *344:56 0.000309574
31 *1412:B2 *344:27 2.88179e-05
32 *1412:B2 *344:31 2.57255e-05
33 *1412:B2 *344:56 1.19438e-05
34 *1413:B2 *1408:A1 1.76322e-05
35 *1413:B2 *1412:A1 3.22267e-05
36 *1413:B2 *344:56 1.51257e-05
37 *1415:A1 *1285:B 0.000159515
38 *1415:A1 *344:8 0.000160503
39 *1415:A1 *344:27 2.86154e-05
40 *1415:A2 *344:27 4.17713e-05
41 *1462:D *1255:I 6.7274e-05
42 *1462:D *1293:A2 0.000192094
43 *1464:D *1293:A2 0.000253979
44 *1464:D *344:60 0.000116764
45 *1465:RN *1293:A2 0
46 *1466:D *344:27 0
47 *1466:D *344:56 4.52788e-06
48 *1466:D *344:60 0
49 *1466:CLK *344:27 1.61847e-05
50 *1516:I *1255:I 0.000186915
51 *1516:I *344:56 0.000304077
52 *1601:I *1375:A1 0.00041062
53 *1601:I *344:27 5.16366e-05
54 *4:30 *1255:I 4.47078e-05
55 *44:10 *1255:I 0.000780317
56 *100:54 *1293:A2 2.86661e-07
57 *101:16 *1285:B 0.000426749
58 *101:16 *344:8 0.000336865
59 *101:16 *344:27 3.34854e-05
60 *113:6 *1285:B 1.23313e-05
61 *131:12 *344:27 0.000229456
62 *208:457 *344:27 7.53143e-06
63 *225:20 *344:56 2.02486e-05
64 *225:20 *344:60 7.90878e-06
65 *228:16 *344:8 4.14296e-05
66 *272:125 *344:27 0.000238407
67 *288:76 *1293:A2 1.38099e-05
68 *341:14 *1293:A2 5.12837e-05
69 *341:14 *344:60 2.61904e-05
*RES
1 *1463:Q *344:8 5.716 
2 *344:8 *1285:B 5.64 
3 *344:8 *344:27 12.328 
4 *344:27 *344:31 4.728 
5 *344:31 *1255:I 17.528 
6 *344:31 *344:56 12.116 
7 *344:56 *344:60 5.488 
8 *344:60 *1293:A2 11.128 
9 *344:60 *1375:A1 10.444 
10 *344:56 *1408:A1 5.032 
11 *344:27 *1412:A1 9.228 
*END

*D_NET *345 0.0113363
*CONN
*I *1282:A1 I *D gf180mcu_fd_sc_mcu7t5v0__nand2_1
*I *1250:I I *D gf180mcu_fd_sc_mcu7t5v0__clkinv_1
*I *1299:A1 I *D gf180mcu_fd_sc_mcu7t5v0__oai21_1
*I *1293:A1 I *D gf180mcu_fd_sc_mcu7t5v0__or3_1
*I *1464:Q O *D gf180mcu_fd_sc_mcu7t5v0__dffrnq_1
*CAP
1 *1282:A1 0
2 *1250:I 0.000213904
3 *1299:A1 0.000160508
4 *1293:A1 9.98116e-05
5 *1464:Q 0
6 *345:40 0.000652289
7 *345:25 0.00134033
8 *345:4 0.000841248
9 *360:I *1250:I 1.61066e-05
10 *1251:I *345:40 0
11 *1282:A2 *345:40 7.24161e-06
12 *1293:A2 *1293:A1 7.17876e-05
13 *1299:A2 *1293:A1 1.5961e-05
14 *1299:A2 *1299:A1 2.96621e-05
15 *1299:A2 *345:25 0.00113502
16 *1299:B *1299:A1 1.52768e-05
17 *1377:A2 *1293:A1 0.00011482
18 *1377:A2 *345:25 0.000412711
19 *1408:A3 *345:25 2.65978e-05
20 *1529:I *1250:I 0
21 *1529:I *1299:A1 8.2204e-06
22 *1529:I *345:25 0.000350224
23 *1529:I *345:40 0.00250834
24 *1541:I *345:40 0
25 *1569:I *1250:I 0.000228031
26 *1569:I *345:25 0.000252881
27 *1569:I *345:40 0.00082829
28 *4:30 *1293:A1 0.000124707
29 *4:30 *345:25 0.000613339
30 *98:12 *1250:I 0.000992313
31 *341:14 *1293:A1 0.000276717
*RES
1 *1464:Q *345:4 4.5 
2 *345:4 *1293:A1 15.02 
3 *345:4 *345:25 12.328 
4 *345:25 *1299:A1 9.836 
5 *345:25 *345:40 12.1 
6 *345:40 *1250:I 16.312 
7 *345:40 *1282:A1 4.5 
*END

*D_NET *346 0.00604229
*CONN
*I *1296:A1 I *D gf180mcu_fd_sc_mcu7t5v0__nor3_2
*I *1288:B I *D gf180mcu_fd_sc_mcu7t5v0__aoi21_1
*I *1465:Q O *D gf180mcu_fd_sc_mcu7t5v0__dffrnq_1
*CAP
1 *1296:A1 0.000166453
2 *1288:B 0.000890801
3 *1465:Q 0
4 *346:6 0.00105725
5 *1273:A1 *1296:A1 0.000101339
6 *1278:A2 *1296:A1 0.00031494
7 *1280:A1 *1288:B 9.04915e-06
8 *1280:A3 *1288:B 0.000264875
9 *1288:A2 *1288:B 7.61504e-05
10 *1296:A2 *1296:A1 3.08902e-05
11 *1296:A3 *1296:A1 8.55327e-05
12 *1376:A1 *1288:B 0.000105987
13 *1376:A1 *1296:A1 0.000106395
14 *1377:A2 *1288:B 0.000826105
15 *1377:A2 *1296:A1 0.000523313
16 *1465:D *1288:B 0.000211987
17 *1498:I *1288:B 8.25154e-05
18 *1571:I *1288:B 0.000230678
19 *44:10 *1288:B 0.00013089
20 *223:12 *1288:B 0.000179145
21 *223:16 *1288:B 0.000357798
22 *248:65 *1288:B 0.000191557
23 *248:65 *1296:A1 9.86383e-05
24 *305:12 *1288:B 0
*RES
1 *1465:Q *346:6 9 
2 *346:6 *1288:B 17.664 
3 *346:6 *1296:A1 11.888 
*END

*D_NET *347 0.00754675
*CONN
*I *1514:I I *D gf180mcu_fd_sc_mcu7t5v0__dlyb_1
*I *1466:Q O *D gf180mcu_fd_sc_mcu7t5v0__dffrnq_1
*CAP
1 *1514:I 0.0014258
2 *1466:Q 0.0014258
3 *361:I *1514:I 0.000202441
4 *1334:A1 *1514:I 0.000344977
5 *1335:A1 *1514:I 1.06388e-05
6 *1340:A2 *1514:I 0
7 *1344:A2 *1514:I 5.37924e-05
8 *1369:A2 *1514:I 0.000343606
9 *1374:B2 *1514:I 4.03922e-06
10 *1425:D *1514:I 6.74343e-06
11 *1444:RN *1514:I 0.000631714
12 *1532:I *1514:I 5.99416e-05
13 *146:36 *1514:I 0.0003605
14 *170:30 *1514:I 0.000654369
15 *248:89 *1514:I 0
16 *270:10 *1514:I 0
17 *312:14 *1514:I 3.64765e-05
18 *322:16 *1514:I 0.000149703
19 *322:18 *1514:I 0.000286672
20 *337:43 *1514:I 0.000449676
21 *338:12 *1514:I 7.39173e-05
22 *338:28 *1514:I 0.00102594
*RES
1 *1466:Q *1514:I 30.464 
*END
