*SPEF "ieee 1481-1999"
*DESIGN "sar_logic_diff"
*DATE "12:50:06 Friday August 07, 2026"
*VENDOR "The OpenROAD Project"
*PROGRAM "OpenROAD"
*VERSION "26Q1-1024-gdcf36133a"
*DESIGN_FLOW "NAME_SCOPE LOCAL" "PIN_CAP NONE"
*DIVIDER /
*DELIMITER :
*BUS_DELIMITER []
*T_UNIT 1 NS
*C_UNIT 1 PF
*R_UNIT 1 OHM
*L_UNIT 1 HENRY

*NAME_MAP
*3 busy
*4 clk
*5 cmp_clk
*6 cmp_rst
*7 comp_out
*8 dac_n[0]
*9 dac_n[1]
*10 dac_n[2]
*11 dac_n[3]
*12 dac_n[4]
*13 dac_n[5]
*14 dac_n[6]
*15 dac_n[7]
*16 dac_n[8]
*17 dac_n[9]
*18 dac_p[0]
*19 dac_p[1]
*20 dac_p[2]
*21 dac_p[3]
*22 dac_p[4]
*23 dac_p[5]
*24 dac_p[6]
*25 dac_p[7]
*26 dac_p[8]
*27 dac_p[9]
*28 dout[0]
*29 dout[1]
*30 dout[2]
*31 dout[3]
*32 dout[4]
*33 dout[5]
*34 dout[6]
*35 dout[7]
*36 dout[8]
*37 dout[9]
*38 dout_valid
*39 eoc
*40 rst_n
*41 samp_bot
*42 samp_top
*43 start
*44 _000_
*45 _001_
*46 _002_
*47 _003_
*48 _004_
*49 _005_
*50 _006_
*51 _007_
*52 _008_
*53 _009_
*54 _010_
*55 _011_
*56 _012_
*57 _013_
*58 _014_
*59 _015_
*60 _016_
*61 _017_
*62 _018_
*63 _019_
*64 _020_
*65 _021_
*66 _022_
*67 _023_
*68 _024_
*69 _025_
*70 _026_
*71 _027_
*72 _028_
*73 _029_
*74 _030_
*75 _031_
*76 _032_
*77 _033_
*78 _034_
*79 _035_
*80 _036_
*81 _037_
*82 _038_
*83 _039_
*84 _040_
*85 _041_
*86 _042_
*87 _043_
*88 _044_
*89 _045_
*90 _046_
*91 _047_
*92 _048_
*93 _049_
*94 _050_
*95 _051_
*96 _052_
*97 _053_
*98 _054_
*99 _055_
*100 _056_
*101 _057_
*102 _058_
*103 _059_
*104 _060_
*105 _061_
*106 _062_
*107 _063_
*108 _064_
*109 _065_
*110 _066_
*111 _067_
*112 _068_
*113 _069_
*114 _070_
*115 _071_
*116 _072_
*117 _073_
*118 _074_
*119 _075_
*120 _076_
*121 _077_
*122 _078_
*123 _079_
*124 _080_
*125 _081_
*126 _082_
*127 _083_
*128 _084_
*129 _085_
*130 _086_
*131 _087_
*132 _088_
*133 _089_
*134 _090_
*135 _091_
*136 _092_
*137 _093_
*138 _094_
*139 _095_
*140 _096_
*141 _097_
*142 _098_
*143 _099_
*144 _100_
*145 _101_
*146 _102_
*147 _103_
*148 _104_
*149 _105_
*150 _106_
*151 _107_
*152 _108_
*153 _109_
*154 _110_
*155 _111_
*156 _112_
*157 _113_
*158 _114_
*159 _115_
*160 _116_
*161 _117_
*162 _118_
*163 _119_
*164 _120_
*165 _121_
*166 _122_
*167 _123_
*168 _124_
*169 _125_
*170 _126_
*171 _127_
*172 _128_
*173 _129_
*174 _130_
*175 _131_
*176 _132_
*177 _133_
*178 _134_
*179 _135_
*180 _136_
*181 _137_
*182 _138_
*183 _139_
*184 _140_
*185 _141_
*186 _142_
*187 _143_
*188 _144_
*189 _145_
*190 _146_
*191 _147_
*192 _148_
*193 _149_
*194 _150_
*195 _151_
*196 _152_
*197 _153_
*198 _154_
*199 _155_
*200 _156_
*201 _157_
*202 _158_
*203 _159_
*204 bit_idx\[0\]
*205 bit_idx\[1\]
*206 bit_idx\[2\]
*207 bit_idx\[3\]
*208 clknet_0_clk
*209 clknet_4_0_0_clk
*210 clknet_4_10_0_clk
*211 clknet_4_11_0_clk
*212 clknet_4_12_0_clk
*213 clknet_4_13_0_clk
*214 clknet_4_14_0_clk
*215 clknet_4_15_0_clk
*216 clknet_4_1_0_clk
*217 clknet_4_2_0_clk
*218 clknet_4_3_0_clk
*219 clknet_4_4_0_clk
*220 clknet_4_5_0_clk
*221 clknet_4_6_0_clk
*222 clknet_4_7_0_clk
*223 clknet_4_8_0_clk
*224 clknet_4_9_0_clk
*225 cnt\[0\]
*226 cnt\[1\]
*227 cnt\[2\]
*228 cnt\[3\]
*229 net1
*230 net10
*231 net100
*232 net101
*233 net11
*234 net12
*235 net13
*236 net14
*237 net15
*238 net16
*239 net17
*240 net18
*241 net19
*242 net2
*243 net20
*244 net21
*245 net22
*246 net23
*247 net24
*248 net25
*249 net26
*250 net27
*251 net28
*252 net29
*253 net3
*254 net30
*255 net31
*256 net32
*257 net33
*258 net34
*259 net35
*260 net36
*261 net37
*262 net38
*263 net39
*264 net4
*265 net40
*266 net41
*267 net42
*268 net43
*269 net44
*270 net45
*271 net46
*272 net47
*273 net48
*274 net49
*275 net5
*276 net50
*277 net51
*278 net52
*279 net53
*280 net54
*281 net55
*282 net56
*283 net57
*284 net58
*285 net59
*286 net6
*287 net60
*288 net61
*289 net62
*290 net63
*291 net64
*292 net65
*293 net66
*294 net67
*295 net68
*296 net69
*297 net7
*298 net70
*299 net71
*300 net72
*301 net73
*302 net74
*303 net75
*304 net76
*305 net77
*306 net78
*307 net79
*308 net8
*309 net80
*310 net81
*311 net82
*312 net83
*313 net84
*314 net85
*315 net86
*316 net87
*317 net88
*318 net89
*319 net9
*320 net90
*321 net91
*322 net92
*323 net93
*324 net94
*325 net95
*326 net96
*327 net97
*328 net98
*329 net99
*330 sar_reg\[0\]
*331 sar_reg\[1\]
*332 sar_reg\[2\]
*333 sar_reg\[3\]
*334 sar_reg\[4\]
*335 sar_reg\[5\]
*336 sar_reg\[6\]
*337 sar_reg\[7\]
*338 sar_reg\[8\]
*339 sar_reg\[9\]
*340 state\[0\]
*341 state\[1\]
*342 state\[2\]
*343 state\[3\]
*344 state\[4\]
*345 state\[5\]
*346 state\[6\]
*347 state\[7\]
*348 ANTENNA__162__I
*349 ANTENNA__171__I
*350 ANTENNA__174__I
*351 ANTENNA__176__I
*352 ANTENNA__177__I
*353 ANTENNA__177__ZN
*354 ANTENNA__182__I
*355 ANTENNA__185__A1
*356 ANTENNA__186__A3
*357 ANTENNA__198__A1
*358 ANTENNA__200__A1
*359 ANTENNA__201__ZN
*360 ANTENNA__203__A1
*361 ANTENNA__205__A1
*362 ANTENNA__208__A2
*363 ANTENNA__209__A2
*364 ANTENNA__218__A2
*365 ANTENNA__223__A2
*366 ANTENNA__228__A2
*367 ANTENNA__233__A2
*368 ANTENNA__235__A1
*369 ANTENNA__237__A2
*370 ANTENNA__239__A3
*371 ANTENNA__241__A2
*372 ANTENNA__245__A2
*373 ANTENNA__248__A2
*374 ANTENNA__251__A1
*375 ANTENNA__253__A2
*376 ANTENNA__260__A1
*377 ANTENNA__260__A2
*378 ANTENNA__260__ZN
*379 ANTENNA__262__B
*380 ANTENNA__263__A2
*381 ANTENNA__263__ZN
*382 ANTENNA__265__B
*383 ANTENNA__266__A1
*384 ANTENNA__266__A2
*385 ANTENNA__266__ZN
*386 ANTENNA__268__B
*387 ANTENNA__269__A1
*388 ANTENNA__269__A2
*389 ANTENNA__269__ZN
*390 ANTENNA__271__B
*391 ANTENNA__272__A2
*392 ANTENNA__275__A2
*393 ANTENNA__284__A1
*394 ANTENNA__285__A1
*395 ANTENNA__292__A1
*396 ANTENNA__309__A1
*397 ANTENNA__309__ZN
*398 ANTENNA__310__A2
*399 ANTENNA__314__A1
*400 ANTENNA__319__A2
*401 ANTENNA__340__RN
*402 ANTENNA__359__Q
*403 ANTENNA__359__RN
*404 ANTENNA__360__RN
*405 ANTENNA__361__Q
*406 ANTENNA__361__RN
*407 ANTENNA__362__Q
*408 ANTENNA__367__Q
*409 ANTENNA__370__RN
*410 ANTENNA__381__D
*411 ANTENNA_clkbuf_0_clk_I
*412 ANTENNA_clkbuf_0_clk_Z
*413 ANTENNA_clkbuf_4_0_0_clk_I
*414 ANTENNA_clkbuf_4_10_0_clk_I
*415 ANTENNA_clkbuf_4_11_0_clk_I
*416 ANTENNA_clkbuf_4_12_0_clk_I
*417 ANTENNA_clkbuf_4_13_0_clk_I
*418 ANTENNA_clkbuf_4_14_0_clk_I
*419 ANTENNA_clkbuf_4_15_0_clk_I
*420 ANTENNA_clkbuf_4_1_0_clk_I
*421 ANTENNA_clkbuf_4_2_0_clk_I
*422 ANTENNA_clkbuf_4_3_0_clk_I
*423 ANTENNA_clkbuf_4_4_0_clk_I
*424 ANTENNA_clkbuf_4_5_0_clk_I
*425 ANTENNA_clkbuf_4_6_0_clk_I
*426 ANTENNA_clkbuf_4_7_0_clk_I
*427 ANTENNA_clkbuf_4_8_0_clk_I
*428 ANTENNA_clkbuf_4_9_0_clk_I
*429 ANTENNA_fanout47_Z
*430 ANTENNA_fanout49_I
*431 ANTENNA_fanout49_Z
*432 ANTENNA_fanout50_Z
*433 ANTENNA_fanout57_I
*434 ANTENNA_fanout58_I
*435 ANTENNA_fanout59_Z
*436 ANTENNA_fanout62_Z
*437 ANTENNA_fanout63_Z
*438 ANTENNA_fanout97_I
*439 ANTENNA_fanout98_I
*440 ANTENNA_input1_I
*441 ANTENNA_input1_Z
*442 ANTENNA_input2_I
*443 ANTENNA_input3_I
*444 ANTENNA_load_slew69_I
*445 ANTENNA_load_slew69_Z
*446 ANTENNA_load_slew70_Z
*447 ANTENNA_output10_I
*448 ANTENNA_output17_I
*449 ANTENNA_output19_I
*450 ANTENNA_output20_I
*451 ANTENNA_output25_I
*452 FILLER_0_101
*453 FILLER_0_104
*454 FILLER_0_106
*455 FILLER_0_115
*456 FILLER_0_125
*457 FILLER_0_135
*458 FILLER_0_138
*459 FILLER_0_144
*460 FILLER_0_154
*461 FILLER_0_164
*462 FILLER_0_168
*463 FILLER_0_172
*464 FILLER_0_179
*465 FILLER_0_18
*466 FILLER_0_187
*467 FILLER_0_197
*468 FILLER_0_20
*469 FILLER_0_201
*470 FILLER_0_203
*471 FILLER_0_206
*472 FILLER_0_208
*473 FILLER_0_23
*474 FILLER_0_33
*475 FILLER_0_36
*476 FILLER_0_45
*477 FILLER_0_57
*478 FILLER_0_67
*479 FILLER_0_70
*480 FILLER_0_74
*481 FILLER_0_91
*482 FILLER_10_104
*483 FILLER_10_107
*484 FILLER_10_145
*485 FILLER_10_147
*486 FILLER_10_174
*487 FILLER_10_177
*488 FILLER_10_180
*489 FILLER_10_182
*490 FILLER_10_34
*491 FILLER_10_37
*492 FILLER_10_47
*493 FILLER_10_59
*494 FILLER_10_6
*495 FILLER_11_100
*496 FILLER_11_139
*497 FILLER_11_142
*498 FILLER_11_145
*499 FILLER_11_147
*500 FILLER_11_156
*501 FILLER_11_194
*502 FILLER_11_198
*503 FILLER_11_2
*504 FILLER_11_200
*505 FILLER_11_209
*506 FILLER_11_212
*507 FILLER_11_215
*508 FILLER_11_41
*509 FILLER_11_5
*510 FILLER_11_53
*511 FILLER_11_69
*512 FILLER_11_72
*513 FILLER_11_81
*514 FILLER_11_87
*515 FILLER_11_91
*516 FILLER_12_102
*517 FILLER_12_104
*518 FILLER_12_107
*519 FILLER_12_145
*520 FILLER_12_16
*521 FILLER_12_164
*522 FILLER_12_174
*523 FILLER_12_177
*524 FILLER_12_180
*525 FILLER_12_182
*526 FILLER_12_34
*527 FILLER_12_37
*528 FILLER_12_6
*529 FILLER_12_64
*530 FILLER_13_124
*531 FILLER_13_126
*532 FILLER_13_129
*533 FILLER_13_139
*534 FILLER_13_142
*535 FILLER_13_145
*536 FILLER_13_149
*537 FILLER_13_159
*538 FILLER_13_195
*539 FILLER_13_199
*540 FILLER_13_2
*541 FILLER_13_209
*542 FILLER_13_212
*543 FILLER_13_215
*544 FILLER_13_37
*545 FILLER_13_55
*546 FILLER_13_69
*547 FILLER_13_72
*548 FILLER_13_83
*549 FILLER_13_87
*550 FILLER_14_10
*551 FILLER_14_104
*552 FILLER_14_107
*553 FILLER_14_118
*554 FILLER_14_12
*555 FILLER_14_122
*556 FILLER_14_146
*557 FILLER_14_156
*558 FILLER_14_174
*559 FILLER_14_177
*560 FILLER_14_180
*561 FILLER_14_182
*562 FILLER_14_19
*563 FILLER_14_191
*564 FILLER_14_209
*565 FILLER_14_29
*566 FILLER_14_31
*567 FILLER_14_34
*568 FILLER_14_37
*569 FILLER_14_39
*570 FILLER_14_48
*571 FILLER_14_58
*572 FILLER_14_68
*573 FILLER_14_86
*574 FILLER_15_139
*575 FILLER_15_142
*576 FILLER_15_158
*577 FILLER_15_194
*578 FILLER_15_198
*579 FILLER_15_2
*580 FILLER_15_200
*581 FILLER_15_209
*582 FILLER_15_212
*583 FILLER_15_215
*584 FILLER_15_37
*585 FILLER_15_39
*586 FILLER_15_42
*587 FILLER_15_50
*588 FILLER_15_62
*589 FILLER_15_69
*590 FILLER_15_72
*591 FILLER_15_86
*592 FILLER_15_88
*593 FILLER_16_10
*594 FILLER_16_104
*595 FILLER_16_107
*596 FILLER_16_116
*597 FILLER_16_120
*598 FILLER_16_124
*599 FILLER_16_128
*600 FILLER_16_145
*601 FILLER_16_155
*602 FILLER_16_157
*603 FILLER_16_17
*604 FILLER_16_173
*605 FILLER_16_177
*606 FILLER_16_180
*607 FILLER_16_182
*608 FILLER_16_28
*609 FILLER_16_34
*610 FILLER_16_37
*611 FILLER_16_40
*612 FILLER_16_50
*613 FILLER_16_68
*614 FILLER_16_86
*615 FILLER_16_90
*616 FILLER_16_94
*617 FILLER_17_113
*618 FILLER_17_120
*619 FILLER_17_139
*620 FILLER_17_142
*621 FILLER_17_151
*622 FILLER_17_155
*623 FILLER_17_172
*624 FILLER_17_2
*625 FILLER_17_200
*626 FILLER_17_207
*627 FILLER_17_209
*628 FILLER_17_212
*629 FILLER_17_215
*630 FILLER_17_37
*631 FILLER_17_55
*632 FILLER_17_57
*633 FILLER_17_66
*634 FILLER_17_72
*635 FILLER_17_76
*636 FILLER_18_10
*637 FILLER_18_104
*638 FILLER_18_107
*639 FILLER_18_116
*640 FILLER_18_118
*641 FILLER_18_136
*642 FILLER_18_138
*643 FILLER_18_14
*644 FILLER_18_141
*645 FILLER_18_159
*646 FILLER_18_169
*647 FILLER_18_171
*648 FILLER_18_174
*649 FILLER_18_177
*650 FILLER_18_180
*651 FILLER_18_182
*652 FILLER_18_24
*653 FILLER_18_34
*654 FILLER_18_37
*655 FILLER_18_45
*656 FILLER_18_55
*657 FILLER_18_59
*658 FILLER_18_63
*659 FILLER_18_91
*660 FILLER_18_93
*661 FILLER_18_96
*662 FILLER_19_10
*663 FILLER_19_121
*664 FILLER_19_129
*665 FILLER_19_139
*666 FILLER_19_14
*667 FILLER_19_142
*668 FILLER_19_145
*669 FILLER_19_183
*670 FILLER_19_191
*671 FILLER_19_209
*672 FILLER_19_212
*673 FILLER_19_215
*674 FILLER_19_24
*675 FILLER_19_30
*676 FILLER_19_66
*677 FILLER_19_72
*678 FILLER_19_75
*679 FILLER_19_77
*680 FILLER_1_111
*681 FILLER_1_130
*682 FILLER_1_139
*683 FILLER_1_142
*684 FILLER_1_151
*685 FILLER_1_16
*686 FILLER_1_189
*687 FILLER_1_193
*688 FILLER_1_199
*689 FILLER_1_209
*690 FILLER_1_212
*691 FILLER_1_215
*692 FILLER_1_26
*693 FILLER_1_32
*694 FILLER_1_6
*695 FILLER_1_68
*696 FILLER_1_72
*697 FILLER_1_75
*698 FILLER_20_10
*699 FILLER_20_104
*700 FILLER_20_107
*701 FILLER_20_127
*702 FILLER_20_129
*703 FILLER_20_138
*704 FILLER_20_16
*705 FILLER_20_174
*706 FILLER_20_177
*707 FILLER_20_180
*708 FILLER_20_182
*709 FILLER_20_24
*710 FILLER_20_34
*711 FILLER_20_37
*712 FILLER_20_42
*713 FILLER_20_52
*714 FILLER_20_62
*715 FILLER_20_98
*716 FILLER_21_10
*717 FILLER_21_126
*718 FILLER_21_132
*719 FILLER_21_139
*720 FILLER_21_142
*721 FILLER_21_152
*722 FILLER_21_18
*723 FILLER_21_188
*724 FILLER_21_192
*725 FILLER_21_196
*726 FILLER_21_200
*727 FILLER_21_209
*728 FILLER_21_212
*729 FILLER_21_215
*730 FILLER_21_27
*731 FILLER_21_63
*732 FILLER_21_69
*733 FILLER_21_72
*734 FILLER_21_87
*735 FILLER_21_91
*736 FILLER_22_104
*737 FILLER_22_107
*738 FILLER_22_116
*739 FILLER_22_124
*740 FILLER_22_134
*741 FILLER_22_141
*742 FILLER_22_145
*743 FILLER_22_157
*744 FILLER_22_174
*745 FILLER_22_177
*746 FILLER_22_180
*747 FILLER_22_182
*748 FILLER_22_34
*749 FILLER_22_37
*750 FILLER_22_64
*751 FILLER_22_7
*752 FILLER_22_82
*753 FILLER_22_92
*754 FILLER_23_10
*755 FILLER_23_104
*756 FILLER_23_111
*757 FILLER_23_139
*758 FILLER_23_142
*759 FILLER_23_144
*760 FILLER_23_150
*761 FILLER_23_154
*762 FILLER_23_156
*763 FILLER_23_172
*764 FILLER_23_200
*765 FILLER_23_204
*766 FILLER_23_208
*767 FILLER_23_212
*768 FILLER_23_215
*769 FILLER_23_46
*770 FILLER_23_54
*771 FILLER_23_64
*772 FILLER_23_66
*773 FILLER_23_69
*774 FILLER_23_72
*775 FILLER_23_85
*776 FILLER_24_10
*777 FILLER_24_104
*778 FILLER_24_107
*779 FILLER_24_117
*780 FILLER_24_127
*781 FILLER_24_14
*782 FILLER_24_163
*783 FILLER_24_165
*784 FILLER_24_174
*785 FILLER_24_177
*786 FILLER_24_180
*787 FILLER_24_182
*788 FILLER_24_24
*789 FILLER_24_34
*790 FILLER_24_37
*791 FILLER_24_64
*792 FILLER_24_66
*793 FILLER_24_69
*794 FILLER_24_97
*795 FILLER_25_129
*796 FILLER_25_138
*797 FILLER_25_142
*798 FILLER_25_151
*799 FILLER_25_179
*800 FILLER_25_183
*801 FILLER_25_191
*802 FILLER_25_2
*803 FILLER_25_209
*804 FILLER_25_212
*805 FILLER_25_215
*806 FILLER_25_45
*807 FILLER_25_47
*808 FILLER_25_57
*809 FILLER_25_69
*810 FILLER_25_72
*811 FILLER_25_79
*812 FILLER_25_9
*813 FILLER_25_93
*814 FILLER_26_100
*815 FILLER_26_104
*816 FILLER_26_107
*817 FILLER_26_145
*818 FILLER_26_149
*819 FILLER_26_161
*820 FILLER_26_165
*821 FILLER_26_174
*822 FILLER_26_177
*823 FILLER_26_180
*824 FILLER_26_184
*825 FILLER_26_188
*826 FILLER_26_19
*827 FILLER_26_192
*828 FILLER_26_2
*829 FILLER_26_209
*830 FILLER_26_29
*831 FILLER_26_33
*832 FILLER_26_37
*833 FILLER_26_72
*834 FILLER_26_85
*835 FILLER_26_87
*836 FILLER_26_9
*837 FILLER_27_129
*838 FILLER_27_136
*839 FILLER_27_142
*840 FILLER_27_145
*841 FILLER_27_153
*842 FILLER_27_160
*843 FILLER_27_164
*844 FILLER_27_168
*845 FILLER_27_172
*846 FILLER_27_176
*847 FILLER_27_180
*848 FILLER_27_199
*849 FILLER_27_209
*850 FILLER_27_212
*851 FILLER_27_216
*852 FILLER_27_38
*853 FILLER_27_47
*854 FILLER_27_51
*855 FILLER_27_69
*856 FILLER_27_72
*857 FILLER_27_81
*858 FILLER_27_93
*859 FILLER_28_10
*860 FILLER_28_103
*861 FILLER_28_107
*862 FILLER_28_110
*863 FILLER_28_112
*864 FILLER_28_147
*865 FILLER_28_151
*866 FILLER_28_155
*867 FILLER_28_159
*868 FILLER_28_16
*869 FILLER_28_163
*870 FILLER_28_167
*871 FILLER_28_177
*872 FILLER_28_193
*873 FILLER_28_34
*874 FILLER_28_37
*875 FILLER_28_45
*876 FILLER_28_65
*877 FILLER_28_83
*878 FILLER_28_95
*879 FILLER_29_103
*880 FILLER_29_117
*881 FILLER_29_124
*882 FILLER_29_131
*883 FILLER_29_137
*884 FILLER_29_139
*885 FILLER_29_142
*886 FILLER_29_147
*887 FILLER_29_151
*888 FILLER_29_155
*889 FILLER_29_159
*890 FILLER_29_199
*891 FILLER_29_2
*892 FILLER_29_209
*893 FILLER_29_212
*894 FILLER_29_215
*895 FILLER_29_37
*896 FILLER_29_47
*897 FILLER_29_51
*898 FILLER_29_53
*899 FILLER_29_60
*900 FILLER_29_69
*901 FILLER_29_72
*902 FILLER_29_83
*903 FILLER_29_91
*904 FILLER_29_99
*905 FILLER_2_104
*906 FILLER_2_107
*907 FILLER_2_142
*908 FILLER_2_152
*909 FILLER_2_156
*910 FILLER_2_17
*911 FILLER_2_172
*912 FILLER_2_174
*913 FILLER_2_177
*914 FILLER_2_212
*915 FILLER_2_216
*916 FILLER_2_27
*917 FILLER_2_34
*918 FILLER_2_37
*919 FILLER_2_46
*920 FILLER_2_50
*921 FILLER_2_7
*922 FILLER_2_88
*923 FILLER_2_92
*924 FILLER_30_10
*925 FILLER_30_101
*926 FILLER_30_104
*927 FILLER_30_107
*928 FILLER_30_125
*929 FILLER_30_132
*930 FILLER_30_138
*931 FILLER_30_143
*932 FILLER_30_149
*933 FILLER_30_165
*934 FILLER_30_169
*935 FILLER_30_172
*936 FILLER_30_180
*937 FILLER_30_184
*938 FILLER_30_186
*939 FILLER_30_20
*940 FILLER_30_203
*941 FILLER_30_206
*942 FILLER_30_208
*943 FILLER_30_30
*944 FILLER_30_36
*945 FILLER_30_45
*946 FILLER_30_53
*947 FILLER_30_55
*948 FILLER_30_62
*949 FILLER_30_64
*950 FILLER_30_67
*951 FILLER_30_70
*952 FILLER_30_72
*953 FILLER_30_81
*954 FILLER_30_91
*955 FILLER_30_99
*956 FILLER_3_10
*957 FILLER_3_107
*958 FILLER_3_109
*959 FILLER_3_112
*960 FILLER_3_130
*961 FILLER_3_138
*962 FILLER_3_142
*963 FILLER_3_177
*964 FILLER_3_194
*965 FILLER_3_198
*966 FILLER_3_20
*967 FILLER_3_200
*968 FILLER_3_209
*969 FILLER_3_212
*970 FILLER_3_215
*971 FILLER_3_22
*972 FILLER_3_29
*973 FILLER_3_65
*974 FILLER_3_69
*975 FILLER_3_72
*976 FILLER_4_10
*977 FILLER_4_104
*978 FILLER_4_107
*979 FILLER_4_124
*980 FILLER_4_130
*981 FILLER_4_166
*982 FILLER_4_174
*983 FILLER_4_177
*984 FILLER_4_186
*985 FILLER_4_196
*986 FILLER_4_20
*987 FILLER_4_200
*988 FILLER_4_209
*989 FILLER_4_30
*990 FILLER_4_34
*991 FILLER_4_37
*992 FILLER_4_72
*993 FILLER_4_76
*994 FILLER_4_86
*995 FILLER_4_94
*996 FILLER_5_107
*997 FILLER_5_137
*998 FILLER_5_139
*999 FILLER_5_142
*1000 FILLER_5_172
*1001 FILLER_5_182
*1002 FILLER_5_199
*1003 FILLER_5_209
*1004 FILLER_5_212
*1005 FILLER_5_215
*1006 FILLER_5_44
*1007 FILLER_5_51
*1008 FILLER_5_69
*1009 FILLER_5_72
*1010 FILLER_5_8
*1011 FILLER_6_10
*1012 FILLER_6_102
*1013 FILLER_6_104
*1014 FILLER_6_107
*1015 FILLER_6_114
*1016 FILLER_6_139
*1017 FILLER_6_14
*1018 FILLER_6_151
*1019 FILLER_6_161
*1020 FILLER_6_171
*1021 FILLER_6_177
*1022 FILLER_6_215
*1023 FILLER_6_24
*1024 FILLER_6_34
*1025 FILLER_6_37
*1026 FILLER_6_64
*1027 FILLER_7_105
*1028 FILLER_7_107
*1029 FILLER_7_124
*1030 FILLER_7_136
*1031 FILLER_7_142
*1032 FILLER_7_151
*1033 FILLER_7_161
*1034 FILLER_7_165
*1035 FILLER_7_192
*1036 FILLER_7_209
*1037 FILLER_7_212
*1038 FILLER_7_215
*1039 FILLER_7_43
*1040 FILLER_7_51
*1041 FILLER_7_69
*1042 FILLER_7_7
*1043 FILLER_7_72
*1044 FILLER_7_77
*1045 FILLER_8_100
*1046 FILLER_8_104
*1047 FILLER_8_107
*1048 FILLER_8_124
*1049 FILLER_8_149
*1050 FILLER_8_16
*1051 FILLER_8_168
*1052 FILLER_8_172
*1053 FILLER_8_174
*1054 FILLER_8_177
*1055 FILLER_8_186
*1056 FILLER_8_190
*1057 FILLER_8_199
*1058 FILLER_8_34
*1059 FILLER_8_37
*1060 FILLER_8_46
*1061 FILLER_8_48
*1062 FILLER_8_57
*1063 FILLER_8_6
*1064 FILLER_8_64
*1065 FILLER_9_112
*1066 FILLER_9_114
*1067 FILLER_9_133
*1068 FILLER_9_137
*1069 FILLER_9_139
*1070 FILLER_9_142
*1071 FILLER_9_151
*1072 FILLER_9_155
*1073 FILLER_9_157
*1074 FILLER_9_192
*1075 FILLER_9_2
*1076 FILLER_9_209
*1077 FILLER_9_212
*1078 FILLER_9_215
*1079 FILLER_9_41
*1080 FILLER_9_5
*1081 FILLER_9_59
*1082 FILLER_9_69
*1083 FILLER_9_72
*1084 FILLER_9_75
*1085 PHY_EDGE_ROW_0_Left_31
*1086 PHY_EDGE_ROW_0_Right_0
*1087 PHY_EDGE_ROW_10_Left_41
*1088 PHY_EDGE_ROW_10_Right_10
*1089 PHY_EDGE_ROW_11_Left_42
*1090 PHY_EDGE_ROW_11_Right_11
*1091 PHY_EDGE_ROW_12_Left_43
*1092 PHY_EDGE_ROW_12_Right_12
*1093 PHY_EDGE_ROW_13_Left_44
*1094 PHY_EDGE_ROW_13_Right_13
*1095 PHY_EDGE_ROW_14_Left_45
*1096 PHY_EDGE_ROW_14_Right_14
*1097 PHY_EDGE_ROW_15_Left_46
*1098 PHY_EDGE_ROW_15_Right_15
*1099 PHY_EDGE_ROW_16_Left_47
*1100 PHY_EDGE_ROW_16_Right_16
*1101 PHY_EDGE_ROW_17_Left_48
*1102 PHY_EDGE_ROW_17_Right_17
*1103 PHY_EDGE_ROW_18_Left_49
*1104 PHY_EDGE_ROW_18_Right_18
*1105 PHY_EDGE_ROW_19_Left_50
*1106 PHY_EDGE_ROW_19_Right_19
*1107 PHY_EDGE_ROW_1_Left_32
*1108 PHY_EDGE_ROW_1_Right_1
*1109 PHY_EDGE_ROW_20_Left_51
*1110 PHY_EDGE_ROW_20_Right_20
*1111 PHY_EDGE_ROW_21_Left_52
*1112 PHY_EDGE_ROW_21_Right_21
*1113 PHY_EDGE_ROW_22_Left_53
*1114 PHY_EDGE_ROW_22_Right_22
*1115 PHY_EDGE_ROW_23_Left_54
*1116 PHY_EDGE_ROW_23_Right_23
*1117 PHY_EDGE_ROW_24_Left_55
*1118 PHY_EDGE_ROW_24_Right_24
*1119 PHY_EDGE_ROW_25_Left_56
*1120 PHY_EDGE_ROW_25_Right_25
*1121 PHY_EDGE_ROW_26_Left_57
*1122 PHY_EDGE_ROW_26_Right_26
*1123 PHY_EDGE_ROW_27_Left_58
*1124 PHY_EDGE_ROW_27_Right_27
*1125 PHY_EDGE_ROW_28_Left_59
*1126 PHY_EDGE_ROW_28_Right_28
*1127 PHY_EDGE_ROW_29_Left_60
*1128 PHY_EDGE_ROW_29_Right_29
*1129 PHY_EDGE_ROW_2_Left_33
*1130 PHY_EDGE_ROW_2_Right_2
*1131 PHY_EDGE_ROW_30_Left_61
*1132 PHY_EDGE_ROW_30_Right_30
*1133 PHY_EDGE_ROW_3_Left_34
*1134 PHY_EDGE_ROW_3_Right_3
*1135 PHY_EDGE_ROW_4_Left_35
*1136 PHY_EDGE_ROW_4_Right_4
*1137 PHY_EDGE_ROW_5_Left_36
*1138 PHY_EDGE_ROW_5_Right_5
*1139 PHY_EDGE_ROW_6_Left_37
*1140 PHY_EDGE_ROW_6_Right_6
*1141 PHY_EDGE_ROW_7_Left_38
*1142 PHY_EDGE_ROW_7_Right_7
*1143 PHY_EDGE_ROW_8_Left_39
*1144 PHY_EDGE_ROW_8_Right_8
*1145 PHY_EDGE_ROW_9_Left_40
*1146 PHY_EDGE_ROW_9_Right_9
*1147 TAP_TAPCELL_ROW_0_62
*1148 TAP_TAPCELL_ROW_0_63
*1149 TAP_TAPCELL_ROW_0_64
*1150 TAP_TAPCELL_ROW_0_65
*1151 TAP_TAPCELL_ROW_0_66
*1152 TAP_TAPCELL_ROW_0_67
*1153 TAP_TAPCELL_ROW_10_95
*1154 TAP_TAPCELL_ROW_10_96
*1155 TAP_TAPCELL_ROW_10_97
*1156 TAP_TAPCELL_ROW_11_100
*1157 TAP_TAPCELL_ROW_11_98
*1158 TAP_TAPCELL_ROW_11_99
*1159 TAP_TAPCELL_ROW_12_101
*1160 TAP_TAPCELL_ROW_12_102
*1161 TAP_TAPCELL_ROW_12_103
*1162 TAP_TAPCELL_ROW_13_104
*1163 TAP_TAPCELL_ROW_13_105
*1164 TAP_TAPCELL_ROW_13_106
*1165 TAP_TAPCELL_ROW_14_107
*1166 TAP_TAPCELL_ROW_14_108
*1167 TAP_TAPCELL_ROW_14_109
*1168 TAP_TAPCELL_ROW_15_110
*1169 TAP_TAPCELL_ROW_15_111
*1170 TAP_TAPCELL_ROW_15_112
*1171 TAP_TAPCELL_ROW_16_113
*1172 TAP_TAPCELL_ROW_16_114
*1173 TAP_TAPCELL_ROW_16_115
*1174 TAP_TAPCELL_ROW_17_116
*1175 TAP_TAPCELL_ROW_17_117
*1176 TAP_TAPCELL_ROW_17_118
*1177 TAP_TAPCELL_ROW_18_119
*1178 TAP_TAPCELL_ROW_18_120
*1179 TAP_TAPCELL_ROW_18_121
*1180 TAP_TAPCELL_ROW_19_122
*1181 TAP_TAPCELL_ROW_19_123
*1182 TAP_TAPCELL_ROW_19_124
*1183 TAP_TAPCELL_ROW_1_68
*1184 TAP_TAPCELL_ROW_1_69
*1185 TAP_TAPCELL_ROW_1_70
*1186 TAP_TAPCELL_ROW_20_125
*1187 TAP_TAPCELL_ROW_20_126
*1188 TAP_TAPCELL_ROW_20_127
*1189 TAP_TAPCELL_ROW_21_128
*1190 TAP_TAPCELL_ROW_21_129
*1191 TAP_TAPCELL_ROW_21_130
*1192 TAP_TAPCELL_ROW_22_131
*1193 TAP_TAPCELL_ROW_22_132
*1194 TAP_TAPCELL_ROW_22_133
*1195 TAP_TAPCELL_ROW_23_134
*1196 TAP_TAPCELL_ROW_23_135
*1197 TAP_TAPCELL_ROW_23_136
*1198 TAP_TAPCELL_ROW_24_137
*1199 TAP_TAPCELL_ROW_24_138
*1200 TAP_TAPCELL_ROW_24_139
*1201 TAP_TAPCELL_ROW_25_140
*1202 TAP_TAPCELL_ROW_25_141
*1203 TAP_TAPCELL_ROW_25_142
*1204 TAP_TAPCELL_ROW_26_143
*1205 TAP_TAPCELL_ROW_26_144
*1206 TAP_TAPCELL_ROW_26_145
*1207 TAP_TAPCELL_ROW_27_146
*1208 TAP_TAPCELL_ROW_27_147
*1209 TAP_TAPCELL_ROW_27_148
*1210 TAP_TAPCELL_ROW_28_149
*1211 TAP_TAPCELL_ROW_28_150
*1212 TAP_TAPCELL_ROW_28_151
*1213 TAP_TAPCELL_ROW_29_152
*1214 TAP_TAPCELL_ROW_29_153
*1215 TAP_TAPCELL_ROW_29_154
*1216 TAP_TAPCELL_ROW_2_71
*1217 TAP_TAPCELL_ROW_2_72
*1218 TAP_TAPCELL_ROW_2_73
*1219 TAP_TAPCELL_ROW_30_155
*1220 TAP_TAPCELL_ROW_30_156
*1221 TAP_TAPCELL_ROW_30_157
*1222 TAP_TAPCELL_ROW_30_158
*1223 TAP_TAPCELL_ROW_30_159
*1224 TAP_TAPCELL_ROW_30_160
*1225 TAP_TAPCELL_ROW_3_74
*1226 TAP_TAPCELL_ROW_3_75
*1227 TAP_TAPCELL_ROW_3_76
*1228 TAP_TAPCELL_ROW_4_77
*1229 TAP_TAPCELL_ROW_4_78
*1230 TAP_TAPCELL_ROW_4_79
*1231 TAP_TAPCELL_ROW_5_80
*1232 TAP_TAPCELL_ROW_5_81
*1233 TAP_TAPCELL_ROW_5_82
*1234 TAP_TAPCELL_ROW_6_83
*1235 TAP_TAPCELL_ROW_6_84
*1236 TAP_TAPCELL_ROW_6_85
*1237 TAP_TAPCELL_ROW_7_86
*1238 TAP_TAPCELL_ROW_7_87
*1239 TAP_TAPCELL_ROW_7_88
*1240 TAP_TAPCELL_ROW_8_89
*1241 TAP_TAPCELL_ROW_8_90
*1242 TAP_TAPCELL_ROW_8_91
*1243 TAP_TAPCELL_ROW_9_92
*1244 TAP_TAPCELL_ROW_9_93
*1245 TAP_TAPCELL_ROW_9_94
*1246 _160_
*1247 _161_
*1248 _162_
*1249 _163_
*1250 _164_
*1251 _165_
*1252 _166_
*1253 _167_
*1254 _168_
*1255 _169_
*1256 _170_
*1257 _171_
*1258 _172_
*1259 _173_
*1260 _174_
*1261 _175_
*1262 _176_
*1263 _177_
*1264 _178_
*1265 _179_
*1266 _180_
*1267 _181_
*1268 _182_
*1269 _183_
*1270 _184_
*1271 _185_
*1272 _186_
*1273 _187_
*1274 _188_
*1275 _189_
*1276 _190_
*1277 _191_
*1278 _192_
*1279 _193_
*1280 _194_
*1281 _195_
*1282 _196_
*1283 _197_
*1284 _198_
*1285 _199_
*1286 _200_
*1287 _201_
*1288 _202_
*1289 _203_
*1290 _204_
*1291 _205_
*1292 _206_
*1293 _207_
*1294 _208_
*1295 _209_
*1296 _210_
*1297 _211_
*1298 _212_
*1299 _213_
*1300 _214_
*1301 _215_
*1302 _216_
*1303 _217_
*1304 _218_
*1305 _219_
*1306 _220_
*1307 _221_
*1308 _222_
*1309 _223_
*1310 _224_
*1311 _225_
*1312 _226_
*1313 _227_
*1314 _228_
*1315 _229_
*1316 _230_
*1317 _231_
*1318 _232_
*1319 _233_
*1320 _234_
*1321 _235_
*1322 _236_
*1323 _237_
*1324 _238_
*1325 _239_
*1326 _240_
*1327 _241_
*1328 _242_
*1329 _243_
*1330 _244_
*1331 _245_
*1332 _246_
*1333 _247_
*1334 _248_
*1335 _249_
*1336 _250_
*1337 _251_
*1338 _252_
*1339 _253_
*1340 _254_
*1341 _255_
*1342 _256_
*1343 _257_
*1344 _258_
*1345 _259_
*1346 _260_
*1347 _261_
*1348 _262_
*1349 _263_
*1350 _264_
*1351 _265_
*1352 _266_
*1353 _267_
*1354 _268_
*1355 _269_
*1356 _270_
*1357 _271_
*1358 _272_
*1359 _273_
*1360 _274_
*1361 _275_
*1362 _276_
*1363 _277_
*1364 _278_
*1365 _279_
*1366 _280_
*1367 _281_
*1368 _282_
*1369 _283_
*1370 _284_
*1371 _285_
*1372 _286_
*1373 _287_
*1374 _288_
*1375 _289_
*1376 _290_
*1377 _291_
*1378 _292_
*1379 _293_
*1380 _294_
*1381 _295_
*1382 _296_
*1383 _297_
*1384 _298_
*1385 _299_
*1386 _300_
*1387 _301_
*1388 _302_
*1389 _303_
*1390 _304_
*1391 _305_
*1392 _306_
*1393 _307_
*1394 _308_
*1395 _309_
*1396 _310_
*1397 _311_
*1398 _312_
*1399 _313_
*1400 _314_
*1401 _315_
*1402 _316_
*1403 _317_
*1404 _318_
*1405 _319_
*1406 _320_
*1407 _321_
*1408 _322_
*1409 _323_
*1410 _324_
*1411 _325_
*1412 _326_
*1413 _327_
*1414 _328_
*1415 _329_
*1416 _330_
*1417 _331_
*1418 _332_
*1419 _333_
*1420 _334_
*1421 _335_
*1422 _336_
*1423 _337_
*1424 _338_
*1425 _339_
*1426 _340_
*1427 _341_
*1428 _342_
*1429 _343_
*1430 _344_
*1431 _345_
*1432 _346_
*1433 _347_
*1434 _348_
*1435 _349_
*1436 _350_
*1437 _351_
*1438 _352_
*1439 _353_
*1440 _354_
*1441 _355_
*1442 _356_
*1443 _357_
*1444 _358_
*1445 _359_
*1446 _360_
*1447 _361_
*1448 _362_
*1449 _363_
*1450 _364_
*1451 _365_
*1452 _366_
*1453 _367_
*1454 _368_
*1455 _369_
*1456 _370_
*1457 _371_
*1458 _372_
*1459 _373_
*1460 _374_
*1461 _375_
*1462 _376_
*1463 _377_
*1464 _378_
*1465 _379_
*1466 _380_
*1467 _381_
*1468 _382_
*1469 clkbuf_0_clk
*1470 clkbuf_4_0_0_clk
*1471 clkbuf_4_10_0_clk
*1472 clkbuf_4_11_0_clk
*1473 clkbuf_4_12_0_clk
*1474 clkbuf_4_13_0_clk
*1475 clkbuf_4_14_0_clk
*1476 clkbuf_4_15_0_clk
*1477 clkbuf_4_1_0_clk
*1478 clkbuf_4_2_0_clk
*1479 clkbuf_4_3_0_clk
*1480 clkbuf_4_4_0_clk
*1481 clkbuf_4_5_0_clk
*1482 clkbuf_4_6_0_clk
*1483 clkbuf_4_7_0_clk
*1484 clkbuf_4_8_0_clk
*1485 clkbuf_4_9_0_clk
*1486 clkload0
*1487 clkload1
*1488 clkload10
*1489 clkload11
*1490 clkload12
*1491 clkload13
*1492 clkload14
*1493 clkload2
*1494 clkload3
*1495 clkload4
*1496 clkload5
*1497 clkload6
*1498 clkload7
*1499 clkload8
*1500 clkload9
*1501 fanout44
*1502 fanout45
*1503 fanout47
*1504 fanout48
*1505 fanout49
*1506 fanout50
*1507 fanout51
*1508 fanout53
*1509 fanout54
*1510 fanout55
*1511 fanout56
*1512 fanout57
*1513 fanout58
*1514 fanout59
*1515 fanout60
*1516 fanout61
*1517 fanout62
*1518 fanout63
*1519 fanout64
*1520 fanout65
*1521 fanout66
*1522 fanout67
*1523 fanout68
*1524 fanout71
*1525 fanout72
*1526 fanout75
*1527 fanout78
*1528 fanout80
*1529 fanout82
*1530 fanout84
*1531 fanout87
*1532 fanout89
*1533 fanout91
*1534 fanout94
*1535 fanout96
*1536 fanout97
*1537 fanout98
*1538 hold99
*1539 input1
*1540 input2
*1541 input3
*1542 load_slew100
*1543 load_slew101
*1544 load_slew43
*1545 load_slew46
*1546 load_slew52
*1547 load_slew69
*1548 load_slew70
*1549 load_slew73
*1550 load_slew74
*1551 load_slew76
*1552 load_slew77
*1553 load_slew79
*1554 load_slew81
*1555 load_slew85
*1556 load_slew86
*1557 load_slew88
*1558 load_slew90
*1559 load_slew92
*1560 load_slew93
*1561 load_slew95
*1562 max_cap41
*1563 max_cap42
*1564 output10
*1565 output11
*1566 output12
*1567 output13
*1568 output14
*1569 output15
*1570 output16
*1571 output17
*1572 output18
*1573 output19
*1574 output20
*1575 output21
*1576 output22
*1577 output23
*1578 output24
*1579 output25
*1580 output26
*1581 output27
*1582 output28
*1583 output29
*1584 output30
*1585 output31
*1586 output32
*1587 output33
*1588 output34
*1589 output35
*1590 output36
*1591 output37
*1592 output38
*1593 output39
*1594 output4
*1595 output40
*1596 output5
*1597 output6
*1598 output7
*1599 output8
*1600 output9
*1601 wire83

*PORTS
busy O
clk I
cmp_clk O
cmp_rst O
comp_out I
dac_n[0] O
dac_n[1] O
dac_n[2] O
dac_n[3] O
dac_n[4] O
dac_n[5] O
dac_n[6] O
dac_n[7] O
dac_n[8] O
dac_n[9] O
dac_p[0] O
dac_p[1] O
dac_p[2] O
dac_p[3] O
dac_p[4] O
dac_p[5] O
dac_p[6] O
dac_p[7] O
dac_p[8] O
dac_p[9] O
dout[0] O
dout[1] O
dout[2] O
dout[3] O
dout[4] O
dout[5] O
dout[6] O
dout[7] O
dout[8] O
dout[9] O
dout_valid O
eoc O
rst_n I
samp_bot O
samp_top O
start I

*D_NET *3 0.00182588
*CONN
*P busy O
*I *1594:Z O *D gf180mcu_fd_sc_mcu7t5v0__buf_2
*CAP
1 busy 0.00091161
2 *1594:Z 0.00091161
3 busy *403:I 2.65444e-06
*RES
1 *1594:Z busy 10.665 
*END

*D_NET *4 0.0149235
*CONN
*P clk I
*I *411:I I *D gf180mcu_fd_sc_mcu7t5v0__antenna
*I *1469:I I *D gf180mcu_fd_sc_mcu7t5v0__clkbuf_16
*CAP
1 clk 0.00384516
2 *411:I 0
3 *1469:I 0.000709424
4 *4:30 0.00455458
5 *1469:I *1292:A1 2.30981e-05
6 *1469:I *1292:A2 0.000109304
7 *1469:I *1292:B1 1.96745e-05
8 *1469:I *1372:A2 0.000105559
9 *1469:I *1430:CLK 0
10 *1469:I *110:37 1.894e-05
11 *1469:I *274:47 0.000562877
12 *1469:I *276:20 0.000158362
13 *1469:I *280:72 0.000120439
14 *1469:I *293:12 0.000208725
15 *1469:I *343:12 5.23429e-06
16 *4:30 cmp_clk 0
17 *4:30 *376:I 4.82512e-05
18 *4:30 *380:I 3.78027e-05
19 *4:30 *398:I 1.21105e-05
20 *4:30 *427:I 3.7795e-05
21 *4:30 *443:I 0.000146212
22 *4:30 *1252:I 0
23 *4:30 *1255:I 4.68825e-05
24 *4:30 *1275:A1 8.65338e-05
25 *4:30 *1276:A1 0.000258372
26 *4:30 *1293:A1 0.000132393
27 *4:30 *1299:A2 0.000165351
28 *4:30 *1377:A2 0.000635554
29 *4:30 *1457:D 0.000521384
30 *4:30 *1458:RN 1.80559e-05
31 *4:30 *1462:D 0.000380191
32 *4:30 *1569:I 0.000189429
33 *4:30 *1597:I 1.86887e-06
34 *4:30 *1601:I 0.000197237
35 *4:30 *208:371 5.29728e-05
36 *4:30 *208:385 0.000175318
37 *4:30 *208:397 0.00019935
38 *4:30 *224:12 0.000115656
39 *4:30 *224:19 1.27891e-05
40 *4:30 *231:16 1.31689e-06
41 *4:30 *231:22 9.60071e-05
42 *4:30 *275:10 9.59812e-05
43 *4:30 *288:20 6.26942e-05
44 *4:30 *307:18 1.18255e-05
45 *4:30 *311:6 9.28737e-05
46 *4:30 *345:25 0.000649884
*RES
1 clk *4:30 40.725 
2 *4:30 *1469:I 19.98 
3 *4:30 *411:I 4.5 
*END

*D_NET *5 0.00462213
*CONN
*P cmp_clk O
*I *1596:Z O *D gf180mcu_fd_sc_mcu7t5v0__buf_2
*CAP
1 cmp_clk 0.00222687
2 *1596:Z 0.00222687
3 cmp_clk cmp_rst 9.90915e-05
4 cmp_clk *1597:I 6.92926e-05
5 cmp_clk *307:18 0
6 *4:30 cmp_clk 0
*RES
1 *1596:Z cmp_clk 22.275 
*END

*D_NET *6 0.00432666
*CONN
*P cmp_rst O
*I *1597:Z O *D gf180mcu_fd_sc_mcu7t5v0__buf_2
*CAP
1 cmp_rst 0.00130551
2 *1597:Z 0.00130551
3 cmp_rst dac_n[9] 0
4 cmp_rst *1382:A2 8.68398e-06
5 cmp_rst *1457:D 0.000121586
6 cmp_rst *1569:I 0.000443265
7 cmp_rst *307:18 0.00104302
8 cmp_clk cmp_rst 9.90915e-05
*RES
1 *1597:Z cmp_rst 19.575 
*END

*D_NET *7 0.030208
*CONN
*P comp_out I
*I *440:I I *D gf180mcu_fd_sc_mcu7t5v0__antenna
*I *1539:I I *D gf180mcu_fd_sc_mcu7t5v0__dlyb_1
*CAP
1 comp_out 0.00103573
2 *440:I 0.00589084
3 *1539:I 0
4 *7:26 0.0133979
5 *7:9 0.00854274
6 *440:I *323:16 0.000117099
7 *7:9 samp_top 0
8 *7:26 *1260:I 0
9 *7:26 *1303:A1 0.000107221
10 *7:26 *1315:B 0.000125714
11 *7:26 *1351:A2 0.000103812
12 *7:26 *1354:A2 0
13 *7:26 *1594:I 0.000140141
14 *7:26 *166:24 0
15 *7:26 *239:18 0
16 *7:26 *269:44 0.000162435
17 *7:26 *269:65 0.000110796
18 *7:26 *276:114 0.000234481
19 *7:26 *289:38 0.000239136
*RES
1 comp_out *7:9 10.575 
2 *7:9 *1539:I 13.5 
3 *7:9 *7:26 25.032 
4 *7:26 *440:I 42.4189 
*END

*D_NET *8 0.00131305
*CONN
*P dac_n[0] O
*I *1598:Z O *D gf180mcu_fd_sc_mcu7t5v0__buf_2
*CAP
1 dac_n[0] 0.000555163
2 *1598:Z 0.000555163
3 dac_n[0] dac_n[1] 0
4 dac_n[0] dac_p[9] 0
5 dac_n[0] *1367:A1 0.000159952
6 dac_n[0] *235:18 3.58021e-05
7 dac_n[0] *248:10 6.96766e-06
*RES
1 *1598:Z dac_n[0] 12.195 
*END

*D_NET *9 0.00104576
*CONN
*P dac_n[1] O
*I *1599:Z O *D gf180mcu_fd_sc_mcu7t5v0__buf_2
*CAP
1 dac_n[1] 0.000515167
2 *1599:Z 0.000515167
3 dac_n[1] dac_p[0] 0
4 dac_n[1] *235:18 1.54251e-05
5 dac_n[0] dac_n[1] 0
*RES
1 *1599:Z dac_n[1] 11.745 
*END

*D_NET *10 0.00200277
*CONN
*P dac_n[2] O
*I *1600:Z O *D gf180mcu_fd_sc_mcu7t5v0__buf_2
*CAP
1 dac_n[2] 0.000680431
2 *1600:Z 0.000680431
3 dac_n[2] dac_n[3] 0
4 dac_n[2] dac_p[0] 0.000190568
5 dac_n[2] *1564:I 0.000289728
6 dac_n[2] *1567:I 0.000113945
7 dac_n[2] *1571:I 1.09982e-05
8 dac_n[2] *235:18 2.5414e-05
9 dac_n[2] *319:18 1.1256e-05
*RES
1 *1600:Z dac_n[2] 13.455 
*END

*D_NET *11 0.00116532
*CONN
*P dac_n[3] O
*I *1564:Z O *D gf180mcu_fd_sc_mcu7t5v0__buf_2
*CAP
1 dac_n[3] 0.000532176
2 *1564:Z 0.000532176
3 dac_n[3] dac_n[4] 0
4 dac_n[3] *1367:A1 9.85004e-05
5 dac_n[3] *1367:A2 2.46645e-06
6 dac_n[2] dac_n[3] 0
*RES
1 *1564:Z dac_n[3] 12.015 
*END

*D_NET *12 0.00137743
*CONN
*P dac_n[4] O
*I *1565:Z O *D gf180mcu_fd_sc_mcu7t5v0__buf_2
*CAP
1 dac_n[4] 0.000615603
2 *1565:Z 0.000615603
3 dac_n[4] dac_n[5] 0
4 dac_n[4] *1566:I 0.000146221
5 dac_n[3] dac_n[4] 0
*RES
1 *1565:Z dac_n[4] 12.735 
*END

*D_NET *13 0.0015923
*CONN
*P dac_n[5] O
*I *1566:Z O *D gf180mcu_fd_sc_mcu7t5v0__buf_2
*CAP
1 dac_n[5] 0.000716143
2 *1566:Z 0.000716143
3 dac_n[5] dac_n[6] 0
4 dac_n[5] *1566:I 3.5814e-05
5 dac_n[5] *1567:I 6.21948e-05
6 dac_n[5] *210:23 6.2006e-05
7 dac_n[4] dac_n[5] 0
*RES
1 *1566:Z dac_n[5] 13.095 
*END

*D_NET *14 0.00321495
*CONN
*P dac_n[6] O
*I *1567:Z O *D gf180mcu_fd_sc_mcu7t5v0__buf_2
*CAP
1 dac_n[6] 0.000905441
2 *1567:Z 0.000905441
3 dac_n[6] dac_n[7] 2.77414e-05
4 dac_n[6] *1396:A2 3.22122e-05
5 dac_n[6] *1457:D 0.000428273
6 dac_n[6] *1458:CLK 0.000174706
7 dac_n[6] *1566:I 0
8 dac_n[6] *1567:I 2.77055e-05
9 dac_n[6] *210:23 0.000543665
10 dac_n[6] *296:10 0.000168586
11 dac_n[6] *298:76 1.18076e-06
12 dac_n[5] dac_n[6] 0
*RES
1 *1567:Z dac_n[6] 16.425 
*END

*D_NET *15 0.00401346
*CONN
*P dac_n[7] O
*I *1568:Z O *D gf180mcu_fd_sc_mcu7t5v0__buf_2
*CAP
1 dac_n[7] 0.000997471
2 *1568:Z 0.000997471
3 dac_n[7] dac_n[8] 5.15895e-05
4 dac_n[7] *1382:A2 0
5 dac_n[7] *1457:D 0.0013763
6 dac_n[7] *1458:D 0.000113042
7 dac_n[7] *1567:I 0.000216538
8 dac_n[7] *296:10 0.000181534
9 dac_n[7] *298:76 5.17806e-05
10 dac_n[6] dac_n[7] 2.77414e-05
*RES
1 *1568:Z dac_n[7] 17.775 
*END

*D_NET *16 0.00315365
*CONN
*P dac_n[8] O
*I *1569:Z O *D gf180mcu_fd_sc_mcu7t5v0__buf_2
*CAP
1 dac_n[8] 0.0011733
2 *1569:Z 0.0011733
3 dac_n[8] dac_n[9] 0
4 dac_n[8] *1382:A2 0.000176928
5 dac_n[8] *1458:D 0.000578525
6 dac_n[7] dac_n[8] 5.15895e-05
*RES
1 *1569:Z dac_n[8] 16.245 
*END

*D_NET *17 0.00302605
*CONN
*P dac_n[9] O
*I *1570:Z O *D gf180mcu_fd_sc_mcu7t5v0__buf_2
*CAP
1 dac_n[9] 0.0011996
2 *1570:Z 0.0011996
3 dac_n[9] *1252:I 0
4 dac_n[9] *1457:D 8.61446e-05
5 dac_n[9] *1458:RN 0.000288071
6 dac_n[9] *1460:RN 5.05815e-05
7 dac_n[9] *1570:I 0.000191642
8 dac_n[9] *307:18 1.0415e-05
9 cmp_rst dac_n[9] 0
10 dac_n[8] dac_n[9] 0
*RES
1 *1570:Z dac_n[9] 17.055 
*END

*D_NET *18 0.00836901
*CONN
*P dac_p[0] O
*I *1571:Z O *D gf180mcu_fd_sc_mcu7t5v0__buf_2
*CAP
1 dac_p[0] 0.00396986
2 *1571:Z 0.00396986
3 dac_p[0] dac_p[1] 0
4 dac_p[0] *235:18 0.000238712
5 dac_n[1] dac_p[0] 0
6 dac_n[2] dac_p[0] 0.000190568
*RES
1 *1571:Z dac_p[0] 41.985 
*END

*D_NET *19 0.00889262
*CONN
*P dac_p[1] O
*I *1572:Z O *D gf180mcu_fd_sc_mcu7t5v0__buf_2
*CAP
1 dac_p[1] 0.00285531
2 *1572:Z 0.00285531
3 dac_p[1] dac_p[2] 0
4 dac_p[1] dac_p[4] 5.01913e-06
5 dac_p[1] dac_p[5] 0.000767488
6 dac_p[1] dac_p[6] 0
7 dac_p[1] *447:I 0.000727454
8 dac_p[1] *1266:I 4.86061e-05
9 dac_p[1] *1360:A1 0.000103084
10 dac_p[1] *1364:A2 0.000235885
11 dac_p[1] *1398:I1 9.85004e-05
12 dac_p[1] *1450:D 0.000200942
13 dac_p[1] *1470:I 1.17725e-05
14 dac_p[1] *1478:I 0.00010715
15 dac_p[1] *208:21 4.48833e-05
16 dac_p[1] *208:23 9.52244e-05
17 dac_p[1] *235:18 0.000179147
18 dac_p[1] *246:14 0.000128276
19 dac_p[1] *272:31 0.000201541
20 dac_p[1] *272:46 0.000134526
21 dac_p[1] *272:59 1.13657e-05
22 dac_p[1] *273:61 1.37934e-05
23 dac_p[1] *281:10 6.73346e-05
24 dac_p[0] dac_p[1] 0
*RES
1 *1572:Z dac_p[1] 38.475 
*END

*D_NET *20 0.00836569
*CONN
*P dac_p[2] O
*I *1573:Z O *D gf180mcu_fd_sc_mcu7t5v0__buf_2
*CAP
1 dac_p[2] 0.00116408
2 *1573:Z 0.00116408
3 dac_p[2] dac_p[3] 0
4 dac_p[2] dac_p[7] 0
5 dac_p[2] *1262:I 0.00027541
6 dac_p[2] *1426:D 0.0012036
7 dac_p[2] *1456:D 0.000182909
8 dac_p[2] *47:22 0
9 dac_p[2] *94:16 0.00213868
10 dac_p[2] *120:18 0.00177523
11 dac_p[2] *241:6 0.000461702
12 dac_p[1] dac_p[2] 0
*RES
1 *1573:Z dac_p[2] 22.095 
*END

*D_NET *21 0.00514873
*CONN
*P dac_p[3] O
*I *1574:Z O *D gf180mcu_fd_sc_mcu7t5v0__buf_2
*CAP
1 dac_p[3] 0.00128567
2 *1574:Z 0.00128567
3 dac_p[3] dac_p[4] 0
4 dac_p[3] dac_p[7] 5.59548e-05
5 dac_p[3] *1246:I 1.25963e-05
6 dac_p[3] *1291:A2 1.23715e-05
7 dac_p[3] *1357:A2 0.000100437
8 dac_p[3] *1360:A2 0.000551687
9 dac_p[3] *1372:B 0.000119087
10 dac_p[3] *1487:I 0.000250846
11 dac_p[3] *1598:I 0.000226227
12 dac_p[3] *122:20 0.000101602
13 dac_p[3] *273:61 0
14 dac_p[3] *296:46 0.00114659
15 dac_p[2] dac_p[3] 0
*RES
1 *1574:Z dac_p[3] 19.035 
*END

*D_NET *22 0.00571255
*CONN
*P dac_p[4] O
*I *1575:Z O *D gf180mcu_fd_sc_mcu7t5v0__buf_2
*CAP
1 dac_p[4] 0.00121516
2 *1575:Z 0.00121516
3 dac_p[4] dac_p[5] 0
4 dac_p[4] *1266:I 0.000102323
5 dac_p[4] *1351:B 3.08083e-05
6 dac_p[4] *1360:A2 3.99116e-05
7 dac_p[4] *1360:B 9.09805e-05
8 dac_p[4] *1448:CLK 0.000873382
9 dac_p[4] *1449:D 0.000265894
10 dac_p[4] *1449:CLK 4.788e-05
11 dac_p[4] *1487:I 0.00034797
12 dac_p[4] *1579:I 0.000126762
13 dac_p[4] *235:18 0.000303136
14 dac_p[4] *246:14 1.5931e-05
15 dac_p[4] *246:39 6.01533e-05
16 dac_p[4] *273:61 0.000484439
17 dac_p[4] *281:29 0.000333429
18 dac_p[4] *281:35 0.000154208
19 dac_p[1] dac_p[4] 5.01913e-06
20 dac_p[3] dac_p[4] 0
*RES
1 *1575:Z dac_p[4] 19.935 
*END

*D_NET *23 0.00503352
*CONN
*P dac_p[5] O
*I *1576:Z O *D gf180mcu_fd_sc_mcu7t5v0__buf_2
*CAP
1 dac_p[5] 0.00155734
2 *1576:Z 0.00155734
3 dac_p[5] dac_p[6] 0
4 dac_p[5] *447:I 0.000110411
5 dac_p[5] *1267:I 1.316e-05
6 dac_p[5] *1450:D 0.000268106
7 dac_p[5] *1478:I 9.19194e-05
8 dac_p[5] *230:41 0.000185069
9 dac_p[5] *245:31 0.00012473
10 dac_p[5] *246:14 0.000333633
11 dac_p[5] *247:24 2.43148e-05
12 dac_p[1] dac_p[5] 0.000767488
13 dac_p[4] dac_p[5] 0
*RES
1 *1576:Z dac_p[5] 19.935 
*END

*D_NET *24 0.00741417
*CONN
*P dac_p[6] O
*I *1577:Z O *D gf180mcu_fd_sc_mcu7t5v0__buf_2
*CAP
1 dac_p[6] 0.0012898
2 *1577:Z 0.0012898
3 dac_p[6] dac_p[7] 0.000755158
4 dac_p[6] dac_p[8] 0.00204669
5 dac_p[6] *349:I 8.56844e-05
6 dac_p[6] *1246:I 0.000176088
7 dac_p[6] *1267:I 4.31567e-06
8 dac_p[6] *1364:A2 0.000901237
9 dac_p[6] *1366:B 0.000254822
10 dac_p[6] *1372:B 0.000169515
11 dac_p[6] *94:16 9.85004e-05
12 dac_p[6] *235:18 0.000161003
13 dac_p[6] *273:61 7.02302e-05
14 dac_p[6] *319:18 0.000111323
15 dac_p[1] dac_p[6] 0
16 dac_p[5] dac_p[6] 0
*RES
1 *1577:Z dac_p[6] 22.995 
*END

*D_NET *25 0.00965573
*CONN
*P dac_p[7] O
*I *1578:Z O *D gf180mcu_fd_sc_mcu7t5v0__buf_2
*CAP
1 dac_p[7] 0.00150183
2 *1578:Z 0.00150183
3 dac_p[7] dac_p[8] 1.15806e-05
4 dac_p[7] *1246:I 0.000155551
5 dac_p[7] *1265:I 0
6 dac_p[7] *1364:A2 0.000763799
7 dac_p[7] *1366:B 0.0025703
8 dac_p[7] *1449:CLK 0.000915504
9 dac_p[7] *1451:CLK 0.000433797
10 dac_p[7] *1564:I 0.000164908
11 dac_p[7] *1579:I 0.000245997
12 dac_p[7] *94:16 0
13 dac_p[7] *217:17 0.000118548
14 dac_p[7] *247:24 0.000460976
15 dac_p[7] *249:12 0
16 dac_p[2] dac_p[7] 0
17 dac_p[3] dac_p[7] 5.59548e-05
18 dac_p[6] dac_p[7] 0.000755158
*RES
1 *1578:Z dac_p[7] 33.705 
*END

*D_NET *26 0.00841375
*CONN
*P dac_p[8] O
*I *1579:Z O *D gf180mcu_fd_sc_mcu7t5v0__buf_2
*CAP
1 dac_p[8] 0.00099486
2 *1579:Z 0.00099486
3 dac_p[8] dac_p[9] 0
4 dac_p[8] *1265:I 0.000141186
5 dac_p[8] *1366:B 0.00269781
6 dac_p[8] *1564:I 0.000621627
7 dac_p[8] *1566:I 0.000621627
8 dac_p[8] *235:18 1.94743e-05
9 dac_p[8] *247:24 0.000201172
10 dac_p[8] *249:12 6.28609e-05
11 dac_p[6] dac_p[8] 0.00204669
12 dac_p[7] dac_p[8] 1.15806e-05
*RES
1 *1579:Z dac_p[8] 22.185 
*END

*D_NET *27 0.00208242
*CONN
*P dac_p[9] O
*I *1580:Z O *D gf180mcu_fd_sc_mcu7t5v0__buf_2
*CAP
1 dac_p[9] 0.000604741
2 *1580:Z 0.000604741
3 dac_p[9] *1566:I 0.000436469
4 dac_p[9] *247:24 0.000436469
5 dac_n[0] dac_p[9] 0
6 dac_p[8] dac_p[9] 0
*RES
1 *1580:Z dac_p[9] 13.095 
*END

*D_NET *28 0.00166561
*CONN
*P dout[0] O
*I *1581:Z O *D gf180mcu_fd_sc_mcu7t5v0__buf_2
*CAP
1 dout[0] 0.000832807
2 *1581:Z 0.000832807
*RES
1 *1581:Z dout[0] 13.635 
*END

*D_NET *29 0.00204848
*CONN
*P dout[1] O
*I *1582:Z O *D gf180mcu_fd_sc_mcu7t5v0__buf_2
*CAP
1 dout[1] 0.000923233
2 *1582:Z 0.000923233
3 dout[1] *366:I 0
4 dout[1] *405:I 6.63764e-05
5 dout[1] *1581:I 8.64138e-05
6 dout[1] *285:51 7.5809e-06
7 dout[1] *314:6 2.98728e-05
8 dout[1] *314:16 1.17725e-05
*RES
1 *1582:Z dout[1] 14.535 
*END

*D_NET *30 0.00281176
*CONN
*P dout[2] O
*I *1583:Z O *D gf180mcu_fd_sc_mcu7t5v0__buf_2
*CAP
1 dout[2] 0.00102094
2 *1583:Z 0.00102094
3 dout[2] dout[3] 0.000365454
4 dout[2] *1419:RN 9.84908e-05
5 dout[2] *1555:I 4.62934e-05
6 dout[2] *1583:I 6.91381e-05
7 dout[2] *252:10 5.75743e-05
8 dout[2] *254:12 0
9 dout[2] *315:19 0.000132938
*RES
1 *1583:Z dout[2] 15.705 
*END

*D_NET *31 0.00424296
*CONN
*P dout[3] O
*I *1584:Z O *D gf180mcu_fd_sc_mcu7t5v0__buf_2
*CAP
1 dout[3] 0.00123066
2 *1584:Z 0.00123066
3 dout[3] *1389:I0 0.000233578
4 dout[3] *1419:RN 0.000726734
5 dout[3] *1530:I 0.00026477
6 dout[3] *1583:I 2.89427e-06
7 dout[3] *1584:I 0.000117534
8 dout[3] *232:18 6.89967e-05
9 dout[3] *285:51 1.69023e-06
10 dout[2] dout[3] 0.000365454
*RES
1 *1584:Z dout[3] 18.855 
*END

*D_NET *32 0.00269197
*CONN
*P dout[4] O
*I *1585:Z O *D gf180mcu_fd_sc_mcu7t5v0__buf_2
*CAP
1 dout[4] 0.000975331
2 *1585:Z 0.000975331
3 dout[4] dout[5] 0.000106536
4 dout[4] *1389:I0 3.78905e-05
5 dout[4] *1420:RN 5.73826e-05
6 dout[4] *1440:RN 9.7773e-05
7 dout[4] *1530:I 2.5111e-05
8 dout[4] *1557:I 6.67054e-06
9 dout[4] *232:16 0.000273058
10 dout[4] *285:27 2.95122e-05
11 dout[4] *285:33 0.000107369
*RES
1 *1585:Z dout[4] 16.065 
*END

*D_NET *33 0.00450229
*CONN
*P dout[5] O
*I *1586:Z O *D gf180mcu_fd_sc_mcu7t5v0__buf_2
*CAP
1 dout[5] 0.00112251
2 *1586:Z 0.00112251
3 dout[5] *373:I 0.000363938
4 dout[5] *441:I 0
5 dout[5] *1530:I 9.29501e-05
6 dout[5] *1559:I 0.000595755
7 dout[5] *232:16 0.000801961
8 dout[5] *257:8 0
9 dout[5] *283:8 3.92046e-05
10 dout[5] *285:27 1.31384e-05
11 dout[5] *323:18 0.000243782
12 dout[4] dout[5] 0.000106536
*RES
1 *1586:Z dout[5] 18.315 
*END

*D_NET *34 0.00514363
*CONN
*P dout[6] O
*I *1587:Z O *D gf180mcu_fd_sc_mcu7t5v0__buf_2
*CAP
1 dout[6] 0.00257182
2 *1587:Z 0.00257182
*RES
1 *1587:Z dout[6] 32.895 
*END

*D_NET *35 0.00308768
*CONN
*P dout[7] O
*I *1588:Z O *D gf180mcu_fd_sc_mcu7t5v0__buf_2
*CAP
1 dout[7] 0.000998984
2 *1588:Z 0.000998984
3 dout[7] *1393:I0 0.00017813
4 dout[7] *1423:RN 0.000106536
5 dout[7] *1560:I 9.84908e-05
6 dout[7] *1587:I 8.31821e-05
7 dout[7] *1588:I 5.28947e-05
8 dout[7] *326:10 0
9 dout[7] *326:23 0.000570481
*RES
1 *1588:Z dout[7] 16.515 
*END

*D_NET *36 0.00233725
*CONN
*P dout[8] O
*I *1589:Z O *D gf180mcu_fd_sc_mcu7t5v0__buf_2
*CAP
1 dout[8] 0.00110971
2 *1589:Z 0.00110971
3 dout[8] *1589:I 7.01651e-05
4 dout[8] *1590:I 4.76678e-05
*RES
1 *1589:Z dout[8] 15.975 
*END

*D_NET *37 0.00260305
*CONN
*P dout[9] O
*I *1590:Z O *D gf180mcu_fd_sc_mcu7t5v0__buf_2
*CAP
1 dout[9] 0.00123075
2 *1590:Z 0.00123075
3 dout[9] *442:I 2.40587e-06
4 dout[9] *1535:I 8.40821e-05
5 dout[9] *1587:I 5.50498e-05
6 dout[9] *40:13 0
*RES
1 *1590:Z dout[9] 16.695 
*END

*D_NET *38 0.00215454
*CONN
*P dout_valid O
*I *1591:Z O *D gf180mcu_fd_sc_mcu7t5v0__buf_2
*CAP
1 dout_valid 0.00102543
2 *1591:Z 0.00102543
3 dout_valid *1315:B 5.67029e-05
4 dout_valid *1591:I 3.94291e-05
5 dout_valid *276:114 7.55557e-06
*RES
1 *1591:Z dout_valid 20.745 
*END

*D_NET *39 0.00212789
*CONN
*P eoc O
*I *1592:Z O *D gf180mcu_fd_sc_mcu7t5v0__buf_2
*CAP
1 eoc 0.0010553
2 *1592:Z 0.0010553
3 eoc *276:91 1.72921e-05
*RES
1 *1592:Z eoc 20.925 
*END

*D_NET *40 0.00380601
*CONN
*P rst_n I
*I *1540:I I *D gf180mcu_fd_sc_mcu7t5v0__dlyb_1
*I *442:I I *D gf180mcu_fd_sc_mcu7t5v0__antenna
*CAP
1 rst_n 0.00123986
2 *1540:I 0
3 *442:I 0.00044808
4 *40:13 0.00168794
5 *442:I *1535:I 0.000172556
6 *442:I *1587:I 9.55009e-05
7 *40:13 *1529:I 5.40715e-05
8 *40:13 *1535:I 0.000105601
9 dout[9] *442:I 2.40587e-06
10 dout[9] *40:13 0
*RES
1 rst_n *40:13 17.145 
2 *40:13 *442:I 17.1 
3 *40:13 *1540:I 4.5 
*END

*D_NET *41 0.00402859
*CONN
*P samp_bot O
*I *1593:Z O *D gf180mcu_fd_sc_mcu7t5v0__buf_2
*CAP
1 samp_bot 0.00122302
2 *1593:Z 0.00122302
3 samp_bot samp_top 0
4 samp_bot *1262:I 0
5 samp_bot *1351:A2 0.000407241
6 samp_bot *1364:A1 0
7 samp_bot *1445:D 0.00102944
8 samp_bot *265:38 5.99875e-05
9 samp_bot *296:61 6.05946e-05
10 samp_bot *319:18 2.52908e-05
*RES
1 *1593:Z samp_bot 18.855 
*END

*D_NET *42 0.00205301
*CONN
*P samp_top O
*I *1595:Z O *D gf180mcu_fd_sc_mcu7t5v0__buf_2
*CAP
1 samp_top 0.00101945
2 *1595:Z 0.00101945
3 samp_top *1351:A2 1.4106e-05
4 samp_top *229:22 0
5 samp_bot samp_top 0
6 *7:9 samp_top 0
*RES
1 *1595:Z samp_top 14.895 
*END

*D_NET *43 0.00743523
*CONN
*P start I
*I *1541:I I *D gf180mcu_fd_sc_mcu7t5v0__dlyb_1
*I *443:I I *D gf180mcu_fd_sc_mcu7t5v0__antenna
*CAP
1 start 0.000996968
2 *1541:I 0.000159088
3 *443:I 0.000351147
4 *43:11 0.0015072
5 *443:I *1276:A1 9.0278e-05
6 *443:I *1299:A2 0.00076024
7 *443:I *1299:B 0.00016583
8 *443:I *1301:B1 0.00174333
9 *443:I *1410:A2 8.31143e-06
10 *443:I *1569:I 0.000962989
11 *443:I *98:12 0.000114192
12 *1541:I *1282:A2 2.65444e-06
13 *1541:I *1569:I 0.000214047
14 *1541:I *98:12 0.000212746
15 *1541:I *345:40 0
16 *4:30 *443:I 0.000146212
*RES
1 start *43:11 11.205 
2 *43:11 *443:I 17.19 
3 *43:11 *1541:I 10.8 
*END

*D_NET *44 0.00826235
*CONN
*I *1377:A1 I *D gf180mcu_fd_sc_mcu7t5v0__nor3_1
*I *1461:D I *D gf180mcu_fd_sc_mcu7t5v0__dffrnq_1
*I *1278:ZN O *D gf180mcu_fd_sc_mcu7t5v0__nor3_1
*CAP
1 *1377:A1 0.000102904
2 *1461:D 0.000154257
3 *1278:ZN 0.000617417
4 *44:10 0.000874577
5 *1377:A1 *1280:A3 1.39839e-05
6 *1377:A1 *1377:A2 8.69576e-05
7 *1377:A1 *1383:A3 0.000478014
8 *1377:A1 *1542:I 1.96159e-05
9 *1461:D *1280:A3 0.000497814
10 *1461:D *1464:CLK 0.000402007
11 *1461:D *126:10 5.46383e-05
12 *1461:D *223:12 0.000436478
13 *1461:D *305:12 0.00084652
14 *44:10 *1255:I 0.000897978
15 *44:10 *1278:A1 3.55118e-05
16 *44:10 *1278:A2 0.00147918
17 *44:10 *1280:A3 0.000208378
18 *44:10 *1288:B 0.000132549
19 *44:10 *1296:A3 0.000195447
20 *44:10 *1376:A1 0.000554298
21 *44:10 *1407:C 3.11982e-05
22 *44:10 *1601:I 8.05111e-06
23 *44:10 *113:16 1.19491e-05
24 *44:10 *126:10 0.000122626
25 *44:10 *127:12 0
*RES
1 *1278:ZN *44:10 16.92 
2 *44:10 *1461:D 12.6 
3 *44:10 *1377:A1 10.35 
*END

*D_NET *45 0.00784195
*CONN
*I *1462:D I *D gf180mcu_fd_sc_mcu7t5v0__dffrnq_1
*I *1276:ZN O *D gf180mcu_fd_sc_mcu7t5v0__nor2_1
*CAP
1 *1462:D 0.00159759
2 *1276:ZN 0.00159759
3 *1462:D *376:I 0.000145991
4 *1462:D *380:I 0.000103033
5 *1462:D *1255:I 7.35802e-05
6 *1462:D *1283:A1 0.000637746
7 *1462:D *1293:A2 0.00022178
8 *1462:D *1299:A2 0.00033519
9 *1462:D *1376:A1 0
10 *1462:D *1382:A1 0.00124582
11 *1462:D *1384:A1 0.000209288
12 *1462:D *1464:D 0.000169048
13 *1462:D *1464:RN 0.000412393
14 *1462:D *1465:RN 0
15 *1462:D *1471:I 0
16 *1462:D *1484:I 0.000316833
17 *1462:D *1553:I 6.51619e-05
18 *1462:D *100:54 2.33065e-05
19 *1462:D *116:20 1.39839e-05
20 *1462:D *224:19 1.0415e-05
21 *1462:D *288:20 0.000228541
22 *1462:D *288:76 2.09112e-05
23 *1462:D *306:8 3.35573e-05
24 *4:30 *1462:D 0.000380191
*RES
1 *1276:ZN *1462:D 33.39 
*END

*D_NET *46 0.00518366
*CONN
*I *1466:D I *D gf180mcu_fd_sc_mcu7t5v0__dffrnq_1
*I *1273:ZN O *D gf180mcu_fd_sc_mcu7t5v0__nor2_1
*CAP
1 *1466:D 0.000800967
2 *1273:ZN 0.000800967
3 *1466:D *1298:A3 3.32984e-05
4 *1466:D *1299:B 7.05599e-05
5 *1466:D *1346:A1 6.73471e-05
6 *1466:D *1346:A2 0.000121977
7 *1466:D *1375:A2 0.000370045
8 *1466:D *1412:B1 1.23715e-05
9 *1466:D *1415:A2 0.000281369
10 *1466:D *1462:RN 2.26729e-05
11 *1466:D *1488:I 0.000124049
12 *1466:D *123:45 0.000483377
13 *1466:D *123:52 0.00047249
14 *1466:D *123:65 0.000470849
15 *1466:D *208:457 0.000281152
16 *1466:D *211:52 0.000702784
17 *1466:D *310:16 6.07736e-05
18 *1466:D *341:14 2.29459e-06
19 *1466:D *344:27 0
20 *1466:D *344:56 4.31832e-06
21 *1466:D *344:60 0
*RES
1 *1273:ZN *1466:D 26.73 
*END

*D_NET *47 0.0267742
*CONN
*I *1459:D I *D gf180mcu_fd_sc_mcu7t5v0__dffsnq_1
*I *1396:A1 I *D gf180mcu_fd_sc_mcu7t5v0__nor2_1
*I *1291:Z O *D gf180mcu_fd_sc_mcu7t5v0__or2_1
*CAP
1 *1459:D 0.000464243
2 *1396:A1 0
3 *1291:Z 0.000623762
4 *47:22 0.00264245
5 *47:8 0.00373046
6 *1459:D *1291:A2 8.35768e-05
7 *1459:D *1354:B 0.000532491
8 *1459:D *109:24 0.000195133
9 *1459:D *243:21 5.69252e-05
10 *1459:D *296:69 0.000314853
11 *47:8 *399:I 0.000846452
12 *47:8 *1291:A2 0.000313387
13 *47:8 *1426:D 0
14 *47:8 *1459:CLK 5.78854e-06
15 *47:22 *1374:A1 0
16 *47:22 *1448:CLK 0
17 *47:22 *1566:I 0.00035017
18 *47:22 *1570:I 0
19 *47:22 *1574:I 7.94868e-06
20 *47:22 *1575:I 0.00160311
21 *47:22 *1578:I 0.000256371
22 *47:22 *109:24 0.000526535
23 *47:22 *120:18 0.000114031
24 *47:22 *233:20 0.000720123
25 *47:22 *236:14 0.00113423
26 *47:22 *243:21 6.65753e-05
27 *47:22 *248:16 0.00447042
28 *47:22 *308:20 0.000165327
29 *47:22 *319:18 0.00754981
30 dac_p[2] *47:22 0
*RES
1 *1291:Z *47:8 13.77 
2 *47:8 *47:22 48.96 
3 *47:22 *1396:A1 4.5 
4 *47:8 *1459:D 13.14 
*END

*D_NET *48 0.0120654
*CONN
*I *1460:D I *D gf180mcu_fd_sc_mcu7t5v0__dffrnq_1
*I *1289:ZN O *D gf180mcu_fd_sc_mcu7t5v0__nand2_1
*CAP
1 *1460:D 0.0017912
2 *1289:ZN 0.0017912
3 *1460:D *382:I 0.000890296
4 *1460:D *448:I 1.94149e-05
5 *1460:D *1274:A1 8.46326e-05
6 *1460:D *1432:D 0.000716774
7 *1460:D *1432:RN 9.85004e-05
8 *1460:D *1433:D 0.000188735
9 *1460:D *1464:D 3.59427e-05
10 *1460:D *99:12 0
11 *1460:D *121:24 0.00439863
12 *1460:D *296:116 0.00111994
13 *1460:D *305:8 0.000930097
*RES
1 *1289:ZN *1460:D 37.98 
*END

*D_NET *49 0.00259959
*CONN
*I *1463:D I *D gf180mcu_fd_sc_mcu7t5v0__dffrnq_1
*I *1286:ZN O *D gf180mcu_fd_sc_mcu7t5v0__nand2_1
*CAP
1 *1463:D 0.00076426
2 *1286:ZN 0.00076426
3 *1463:D *1342:B 0.000605619
4 *1463:D *1393:S 0
5 *1463:D *1444:CLK 0.00031931
6 *1463:D *1475:I 2.96638e-06
7 *1463:D *1492:I 2.89427e-06
8 *1463:D *113:6 0
9 *1463:D *274:108 1.1746e-06
10 *1463:D *276:192 0
11 *1463:D *339:12 0.000139109
*RES
1 *1286:ZN *1463:D 23.76 
*END

*D_NET *50 0.0121306
*CONN
*I *1464:D I *D gf180mcu_fd_sc_mcu7t5v0__dffrnq_1
*I *1283:ZN O *D gf180mcu_fd_sc_mcu7t5v0__nand2_1
*CAP
1 *1464:D 0.00184221
2 *1283:ZN 0.00184221
3 *1464:D *381:I 0.000285538
4 *1464:D *1281:A1 0.000143643
5 *1464:D *1282:A2 9.04462e-05
6 *1464:D *1283:A1 0.00517287
7 *1464:D *1293:A2 0.000269832
8 *1464:D *1299:A2 2.25258e-05
9 *1464:D *1383:A1 6.06287e-05
10 *1464:D *1383:A3 0.000150744
11 *1464:D *1384:A1 0.000123398
12 *1464:D *1396:A2 5.74032e-05
13 *1464:D *1432:RN 1.89082e-05
14 *1464:D *1464:RN 0.000402115
15 *1464:D *100:54 7.72613e-05
16 *1464:D *126:28 0.000229402
17 *1464:D *170:26 0.000474771
18 *1464:D *198:26 0.000139722
19 *1464:D *225:8 2.08301e-05
20 *1464:D *225:14 0.00033936
21 *1464:D *225:20 2.12335e-05
22 *1464:D *341:14 1.86093e-05
23 *1464:D *344:60 0.000121918
24 *1460:D *1464:D 3.59427e-05
25 *1462:D *1464:D 0.000169048
*RES
1 *1283:ZN *1464:D 37.53 
*END

*D_NET *51 0.00164638
*CONN
*I *1434:D I *D gf180mcu_fd_sc_mcu7t5v0__dffrnq_1
*I *1301:ZN O *D gf180mcu_fd_sc_mcu7t5v0__aoi22_1
*CAP
1 *1434:D 0.000347457
2 *1301:ZN 0.000347457
3 *1434:D *1299:B 1.20019e-05
4 *1434:D *1301:A2 7.37195e-06
5 *1434:D *1301:B1 2.10223e-05
6 *1434:D *1433:D 0.000868424
7 *1434:D *1433:CLK 1.86887e-06
8 *1434:D *214:41 4.07734e-05
*RES
1 *1301:ZN *1434:D 12.06 
*END

*D_NET *52 0.00165476
*CONN
*I *1435:D I *D gf180mcu_fd_sc_mcu7t5v0__dffrnq_1
*I *1306:ZN O *D gf180mcu_fd_sc_mcu7t5v0__oai21_1
*CAP
1 *1435:D 0.000210615
2 *1306:ZN 0.000210615
3 *1435:D *353:I 9.34436e-06
4 *1435:D *404:I 0.000121231
5 *1435:D *1306:A1 0.000873098
6 *1435:D *269:65 0.000220513
7 *1435:D *289:14 9.34436e-06
*RES
1 *1306:ZN *1435:D 20.79 
*END

*D_NET *53 0.00844827
*CONN
*I *1436:D I *D gf180mcu_fd_sc_mcu7t5v0__dffrnq_1
*I *1310:ZN O *D gf180mcu_fd_sc_mcu7t5v0__oai21_1
*CAP
1 *1436:D 0.000700509
2 *1310:ZN 0.000700509
3 *1436:D *1304:A1 2.35868e-05
4 *1436:D *1310:A2 0.000327331
5 *1436:D *1310:B 6.53017e-06
6 *1436:D *1446:D 0.000643579
7 *1436:D *1447:D 3.01487e-05
8 *1436:D *1459:SETN 2.36954e-05
9 *1436:D *1494:I 3.01487e-05
10 *1436:D *219:10 8.67164e-05
11 *1436:D *219:12 0.000288457
12 *1436:D *219:18 0.00222225
13 *1436:D *241:62 0.00238083
14 *1436:D *263:10 0.000215317
15 *1436:D *264:8 0.000430103
16 *1436:D *269:10 4.92317e-05
17 *1436:D *340:18 0.000289331
*RES
1 *1310:ZN *1436:D 30.6 
*END

*D_NET *54 0.00381443
*CONN
*I *1437:D I *D gf180mcu_fd_sc_mcu7t5v0__dffrnq_1
*I *1315:ZN O *D gf180mcu_fd_sc_mcu7t5v0__oai21_1
*CAP
1 *1437:D 0.000527456
2 *1315:ZN 0.000527456
3 *1437:D *1327:A2 0
4 *1437:D *1328:B 0.000147095
5 *1437:D *1436:RN 2.62807e-05
6 *1437:D *1468:I 0.000150744
7 *1437:D *1592:I 0.00100657
8 *1437:D *241:62 1.58013e-05
9 *1437:D *269:65 1.61174e-05
10 *1437:D *277:63 0.0010637
11 *1437:D *328:43 0.000333206
*RES
1 *1315:ZN *1437:D 24.03 
*END

*D_NET *55 0.00501225
*CONN
*I *1438:D I *D gf180mcu_fd_sc_mcu7t5v0__dffrnq_1
*I *1320:ZN O *D gf180mcu_fd_sc_mcu7t5v0__oai21_1
*CAP
1 *1438:D 0.000695247
2 *1320:ZN 0.000695247
3 *1438:D *1318:A2 0.000173092
4 *1438:D *1320:B 0.00083334
5 *1438:D *1322:B 0.000339285
6 *1438:D *1324:A2 3.66676e-05
7 *1438:D *1359:B 0.000281666
8 *1438:D *1359:C 0.000139631
9 *1438:D *1437:RN 7.1845e-05
10 *1438:D *1438:CLK 3.55118e-05
11 *1438:D *1496:I 4.44091e-05
12 *1438:D *1563:I 0.000338183
13 *1438:D *144:25 0.000281088
14 *1438:D *333:16 0.000516389
15 *1438:D *333:22 0.000530648
16 *1438:D *334:24 0
*RES
1 *1320:ZN *1438:D 26.64 
*END

*D_NET *56 0.00372113
*CONN
*I *1439:D I *D gf180mcu_fd_sc_mcu7t5v0__dffrnq_1
*I *1324:ZN O *D gf180mcu_fd_sc_mcu7t5v0__oai21_1
*CAP
1 *1439:D 0.000542735
2 *1324:ZN 0.000542735
3 *1439:D *423:I 2.38983e-05
4 *1439:D *1324:B 7.87389e-05
5 *1439:D *1328:A2 0.000425752
6 *1439:D *1328:B 4.76678e-05
7 *1439:D *1438:CLK 6.03144e-06
8 *1439:D *1496:I 0.000988636
9 *1439:D *146:34 0
10 *1439:D *208:135 0
11 *1439:D *241:88 0.000139046
12 *1439:D *334:24 0.000925887
*RES
1 *1324:ZN *1439:D 24.75 
*END

*D_NET *57 0.000546071
*CONN
*I *1440:D I *D gf180mcu_fd_sc_mcu7t5v0__dffrnq_1
*I *1328:ZN O *D gf180mcu_fd_sc_mcu7t5v0__oai21_1
*CAP
1 *1440:D 0.000193333
2 *1328:ZN 0.000193333
3 *1440:D *1328:A1 0.000152033
4 *1440:D *1328:A2 7.37195e-06
5 *1440:D *1440:CLK 0
*RES
1 *1328:ZN *1440:D 10.44 
*END

*D_NET *58 0.00450904
*CONN
*I *1441:D I *D gf180mcu_fd_sc_mcu7t5v0__dffrnq_1
*I *1332:ZN O *D gf180mcu_fd_sc_mcu7t5v0__oai21_1
*CAP
1 *1441:D 0.000745497
2 *1332:ZN 0.000745497
3 *1441:D *355:I 3.73774e-06
4 *1441:D *406:I 2.76913e-05
5 *1441:D *450:I 0.000121366
6 *1441:D *1332:A2 1.07374e-05
7 *1441:D *1390:S 0.00233425
8 *1441:D *1441:RN 3.81002e-05
9 *1441:D *1441:CLK 2.89427e-06
10 *1441:D *1557:I 5.72722e-05
11 *1441:D *172:22 4.51242e-05
12 *1441:D *191:20 1.39839e-05
13 *1441:D *270:37 0.000302487
14 *1441:D *336:16 6.04076e-05
*RES
1 *1332:ZN *1441:D 26.01 
*END

*D_NET *59 0.002077
*CONN
*I *1442:D I *D gf180mcu_fd_sc_mcu7t5v0__dffrnq_1
*I *1335:ZN O *D gf180mcu_fd_sc_mcu7t5v0__oai21_1
*CAP
1 *1442:D 0.000540353
2 *1335:ZN 0.000540353
3 *1442:D *406:I 8.841e-05
4 *1442:D *1335:A1 9.5155e-05
5 *1442:D *1335:B 2.12491e-06
6 *1442:D *1425:D 0.000496785
7 *1442:D *1444:RN 8.3758e-06
8 *1442:D *1532:I 0.000228146
9 *1442:D *284:24 2.47238e-05
10 *1442:D *337:43 5.2575e-05
*RES
1 *1335:ZN *1442:D 13.41 
*END

*D_NET *60 0.00156201
*CONN
*I *1443:D I *D gf180mcu_fd_sc_mcu7t5v0__dffrnq_1
*I *1340:ZN O *D gf180mcu_fd_sc_mcu7t5v0__oai21_1
*CAP
1 *1443:D 0.000382429
2 *1340:ZN 0.000382429
3 *1443:D *350:I 1.17934e-05
4 *1443:D *406:I 0.000167556
5 *1443:D *1443:CLK 7.64229e-06
6 *1443:D *248:89 5.17374e-05
7 *1443:D *276:192 0.000214689
8 *1443:D *338:28 0.000343735
*RES
1 *1340:ZN *1443:D 21.42 
*END

*D_NET *61 0.00289755
*CONN
*I *1444:D I *D gf180mcu_fd_sc_mcu7t5v0__dffrnq_1
*I *1344:ZN O *D gf180mcu_fd_sc_mcu7t5v0__oai21_1
*CAP
1 *1444:D 0.000291436
2 *1344:ZN 0.000291436
3 *1444:D *412:I 2.42152e-05
4 *1444:D *1342:B 0
5 *1444:D *1343:A2 0.00036855
6 *1444:D *1344:A1 8.42533e-05
7 *1444:D *1344:A2 0.000176182
8 *1444:D *1344:B 0.00114048
9 *1444:D *1444:CLK 7.37195e-06
10 *1444:D *1502:I 0.000161479
11 *1444:D *272:63 0.000352143
*RES
1 *1344:ZN *1444:D 31.41 
*END

*D_NET *62 0.0100647
*CONN
*I *1445:D I *D gf180mcu_fd_sc_mcu7t5v0__dffrnq_1
*I *1348:ZN O *D gf180mcu_fd_sc_mcu7t5v0__oai21_1
*CAP
1 *1445:D 0.000983005
2 *1348:ZN 0.000983005
3 *1445:D *1260:I 0.000105061
4 *1445:D *1291:A1 5.25016e-05
5 *1445:D *1310:A1 8.9944e-05
6 *1445:D *1310:A2 0.000219114
7 *1445:D *1310:B 0.0010441
8 *1445:D *1348:A2 3.40233e-05
9 *1445:D *1351:A2 0.00026284
10 *1445:D *1400:A1 0.000150744
11 *1445:D *1427:D 0.000613495
12 *1445:D *1445:CLK 0.000700259
13 *1445:D *1459:SETN 0.000212665
14 *1445:D *1486:I 5.94972e-05
15 *1445:D *219:18 0.000464606
16 *1445:D *269:29 0.000445488
17 *1445:D *276:46 1.50605e-05
18 *1445:D *276:77 8.85427e-05
19 *1445:D *276:91 1.0415e-05
20 *1445:D *296:61 0.00250087
21 samp_bot *1445:D 0.00102944
*RES
1 *1348:ZN *1445:D 33.48 
*END

*D_NET *63 0.00729749
*CONN
*I *1446:D I *D gf180mcu_fd_sc_mcu7t5v0__dffrnq_1
*I *1351:ZN O *D gf180mcu_fd_sc_mcu7t5v0__oai21_1
*CAP
1 *1446:D 0.00116108
2 *1351:ZN 0.00116108
3 *1446:D *1262:I 6.39342e-06
4 *1446:D *1304:A1 1.08314e-05
5 *1446:D *1354:B 0.000175717
6 *1446:D *1357:B 1.21551e-05
7 *1446:D *1445:RN 0.000157047
8 *1446:D *1447:D 0.00271172
9 *1446:D *1448:CLK 5.91855e-05
10 *1446:D *1537:I 0.000157047
11 *1446:D *229:22 3.97987e-05
12 *1446:D *239:41 0
13 *1446:D *241:31 0.000114229
14 *1446:D *241:62 0.000598878
15 *1446:D *281:35 0.000106536
16 *1446:D *281:43 0.000182216
17 *1436:D *1446:D 0.000643579
*RES
1 *1351:ZN *1446:D 39.96 
*END

*D_NET *64 0.0060755
*CONN
*I *1447:D I *D gf180mcu_fd_sc_mcu7t5v0__dffrnq_1
*I *1354:ZN O *D gf180mcu_fd_sc_mcu7t5v0__oai21_1
*CAP
1 *1447:D 0.000707424
2 *1354:ZN 0.000707424
3 *1447:D *1262:I 0.000308632
4 *1447:D *1304:A1 0.000344415
5 *1447:D *1354:A2 0.000114714
6 *1447:D *1354:B 6.94177e-06
7 *1447:D *1398:I1 0.000166107
8 *1447:D *1459:CLK 0.000455766
9 *1447:D *263:10 0.00027541
10 *1447:D *296:69 1.4384e-05
11 *1447:D *340:18 0.000232415
12 *1436:D *1447:D 3.01487e-05
13 *1446:D *1447:D 0.00271172
*RES
1 *1354:ZN *1447:D 27.9 
*END

*D_NET *65 0.000767868
*CONN
*I *1448:D I *D gf180mcu_fd_sc_mcu7t5v0__dffrnq_1
*I *1357:ZN O *D gf180mcu_fd_sc_mcu7t5v0__oai21_1
*CAP
1 *1448:D 0.000131235
2 *1357:ZN 0.000131235
3 *1448:D *1357:A1 1.478e-05
4 *1448:D *1357:A2 8.07327e-05
5 *1448:D *281:29 0.000409885
*RES
1 *1357:ZN *1448:D 10.44 
*END

*D_NET *66 0.000625963
*CONN
*I *1449:D I *D gf180mcu_fd_sc_mcu7t5v0__dffrnq_1
*I *1360:ZN O *D gf180mcu_fd_sc_mcu7t5v0__oai21_1
*CAP
1 *1449:D 0.000112513
2 *1360:ZN 0.000112513
3 *1449:D *1360:A2 0.000135043
4 dac_p[4] *1449:D 0.000265894
*RES
1 *1360:ZN *1449:D 10.26 
*END

*D_NET *67 0.00436698
*CONN
*I *1450:D I *D gf180mcu_fd_sc_mcu7t5v0__dffrnq_1
*I *1363:ZN O *D gf180mcu_fd_sc_mcu7t5v0__oai21_1
*CAP
1 *1450:D 0.000480196
2 *1363:ZN 0.000480196
3 *1450:D *447:I 0.000164219
4 *1450:D *1363:A1 0.000738308
5 *1450:D *1503:I 0.000628116
6 *1450:D *1598:I 1.07649e-05
7 *1450:D *122:20 0.000850376
8 *1450:D *296:34 0.000215897
9 *1450:D *296:46 0.000329864
10 dac_p[1] *1450:D 0.000200942
11 dac_p[5] *1450:D 0.000268106
*RES
1 *1363:ZN *1450:D 25.92 
*END

*D_NET *68 0.000573923
*CONN
*I *1451:D I *D gf180mcu_fd_sc_mcu7t5v0__dffrnq_1
*I *1366:ZN O *D gf180mcu_fd_sc_mcu7t5v0__oai21_1
*CAP
1 *1451:D 6.13971e-05
2 *1366:ZN 6.13971e-05
3 *1451:D *349:I 0.00014101
4 *1451:D *1564:I 2.11703e-05
5 *1451:D *273:61 0.000288948
*RES
1 *1366:ZN *1451:D 9.99 
*END

*D_NET *69 0.00344325
*CONN
*I *1452:D I *D gf180mcu_fd_sc_mcu7t5v0__dffrnq_1
*I *1369:ZN O *D gf180mcu_fd_sc_mcu7t5v0__oai21_1
*CAP
1 *1452:D 0.000881797
2 *1369:ZN 0.000881797
3 *1452:D *1290:A2 0
4 *1452:D *1345:A1 7.30552e-06
5 *1452:D *1369:A1 1.36594e-05
6 *1452:D *1374:B2 4.80874e-05
7 *1452:D *1379:A1 0.000554178
8 *1452:D *1453:D 6.7467e-05
9 *1452:D *1503:I 0.000108775
10 *1452:D *1571:I 0
11 *1452:D *105:14 9.17159e-05
12 *1452:D *165:6 8.46047e-06
13 *1452:D *265:14 3.05108e-05
14 *1452:D *265:38 0.000286769
15 *1452:D *289:134 0.000462725
*RES
1 *1369:ZN *1452:D 16.56 
*END

*D_NET *70 0.00174244
*CONN
*I *1453:D I *D gf180mcu_fd_sc_mcu7t5v0__dffrnq_1
*I *1372:ZN O *D gf180mcu_fd_sc_mcu7t5v0__oai21_1
*CAP
1 *1453:D 0.00027381
2 *1372:ZN 0.00027381
3 *1453:D *1287:A1 0.00056034
4 *1453:D *1369:A1 3.01487e-05
5 *1453:D *1379:A1 4.68648e-05
6 *1453:D *122:20 6.16184e-05
7 *1453:D *280:52 0.000215362
8 *1453:D *280:72 0.000213019
9 *1452:D *1453:D 6.7467e-05
*RES
1 *1372:ZN *1453:D 20.97 
*END

*D_NET *71 0.00207005
*CONN
*I *1454:D I *D gf180mcu_fd_sc_mcu7t5v0__dffrnq_1
*I *1374:ZN O *D gf180mcu_fd_sc_mcu7t5v0__aoi22_1
*CAP
1 *1454:D 0.000498612
2 *1374:ZN 0.000498612
3 *1454:D *1363:A1 0.000369989
4 *1454:D *1379:A1 0.000247758
5 *1454:D *122:20 1.25858e-05
6 *1454:D *265:38 0.000154135
7 *1454:D *296:34 0.000288364
*RES
1 *1374:ZN *1454:D 14.04 
*END

*D_NET *72 0.00138915
*CONN
*I *1455:D I *D gf180mcu_fd_sc_mcu7t5v0__dffrnq_1
*I *1377:ZN O *D gf180mcu_fd_sc_mcu7t5v0__nor3_1
*CAP
1 *1455:D 0.00036895
2 *1377:ZN 0.00036895
3 *1455:D *1290:A1 5.57923e-05
4 *1455:D *1369:A2 0.000124632
5 *1455:D *1376:A1 0.0003417
6 *1455:D *1377:A3 9.55714e-06
7 *1455:D *1499:I 7.2172e-05
8 *1455:D *224:19 7.31876e-06
9 *1455:D *248:65 4.00744e-05
*RES
1 *1377:ZN *1455:D 20.88 
*END

*D_NET *73 0.00488011
*CONN
*I *1456:D I *D gf180mcu_fd_sc_mcu7t5v0__dffrnq_1
*I *1379:ZN O *D gf180mcu_fd_sc_mcu7t5v0__nor3_1
*CAP
1 *1456:D 0.000633684
2 *1379:ZN 0.000633684
3 *1456:D *391:I 5.2217e-05
4 *1456:D *1357:A2 0.000131469
5 *1456:D *1426:D 1.86452e-05
6 *1456:D *1426:CLK 3.01487e-05
7 *1456:D *1574:I 0
8 *1456:D *94:16 0.00131298
9 *1456:D *109:24 0
10 *1456:D *168:26 0.00131685
11 *1456:D *241:6 0.000251758
12 *1456:D *281:29 0.00031577
13 dac_p[2] *1456:D 0.000182909
*RES
1 *1379:ZN *1456:D 25.83 
*END

*D_NET *74 0.0070728
*CONN
*I *1457:D I *D gf180mcu_fd_sc_mcu7t5v0__dffsnq_1
*I *1382:ZN O *D gf180mcu_fd_sc_mcu7t5v0__nor2_1
*CAP
1 *1457:D 0.000608046
2 *1382:ZN 0.000608046
3 *1457:D *1382:A2 0.00222736
4 *1457:D *1458:RN 0.00020098
5 *1457:D *1458:CLK 0.000141706
6 *1457:D *1460:RN 0.000604092
7 *1457:D *1569:I 3.42509e-05
8 *1457:D *1570:I 0.000114639
9 cmp_rst *1457:D 0.000121586
10 dac_n[6] *1457:D 0.000428273
11 dac_n[7] *1457:D 0.0013763
12 dac_n[9] *1457:D 8.61446e-05
13 *4:30 *1457:D 0.000521384
*RES
1 *1382:ZN *1457:D 29.97 
*END

*D_NET *75 0.00339419
*CONN
*I *1458:D I *D gf180mcu_fd_sc_mcu7t5v0__dffrnq_1
*I *1384:ZN O *D gf180mcu_fd_sc_mcu7t5v0__oai21_1
*CAP
1 *1458:D 0.000447639
2 *1384:ZN 0.000447639
3 *1458:D *1381:A2 0.000121774
4 *1458:D *1381:A3 0.000639738
5 *1458:D *1382:A2 3.18747e-06
6 *1458:D *1396:A2 2.13782e-06
7 *1458:D *1567:I 0.000759916
8 *1458:D *100:16 3.30957e-05
9 *1458:D *126:28 3.42509e-05
10 *1458:D *296:10 0.000121238
11 *1458:D *296:116 4.85447e-05
12 *1458:D *298:76 4.34597e-05
13 dac_n[7] *1458:D 0.000113042
14 dac_n[8] *1458:D 0.000578525
*RES
1 *1384:ZN *1458:D 24.39 
*END

*D_NET *76 0.000697224
*CONN
*I *1416:D I *D gf180mcu_fd_sc_mcu7t5v0__dffrnq_1
*I *1385:Z O *D gf180mcu_fd_sc_mcu7t5v0__mux2_2
*CAP
1 *1416:D 0.000129403
2 *1385:Z 0.000129403
3 *1416:D *1385:I1 0.000365445
4 *1416:D *241:62 6.01893e-05
5 *1416:D *269:65 1.27836e-05
*RES
1 *1385:Z *1416:D 10.44 
*END

*D_NET *77 0.000684163
*CONN
*I *1417:D I *D gf180mcu_fd_sc_mcu7t5v0__dffrnq_1
*I *1386:Z O *D gf180mcu_fd_sc_mcu7t5v0__mux2_2
*CAP
1 *1417:D 9.77128e-05
2 *1386:Z 9.77128e-05
3 *1417:D *1303:B 0.000144735
4 *1417:D *1306:A1 0.000344002
*RES
1 *1386:Z *1417:D 10.26 
*END

*D_NET *78 0.000775437
*CONN
*I *1418:D I *D gf180mcu_fd_sc_mcu7t5v0__dffrnq_1
*I *1387:Z O *D gf180mcu_fd_sc_mcu7t5v0__mux2_2
*CAP
1 *1418:D 1.42288e-05
2 *1387:Z 1.42288e-05
3 *1418:D *1496:I 0.00037349
4 *1418:D *191:20 0.00037349
*RES
1 *1387:Z *1418:D 9.99 
*END

*D_NET *79 0.00184436
*CONN
*I *1419:D I *D gf180mcu_fd_sc_mcu7t5v0__dffrnq_1
*I *1388:Z O *D gf180mcu_fd_sc_mcu7t5v0__mux2_2
*CAP
1 *1419:D 0.000606274
2 *1388:Z 0.000606274
3 *1419:D *1420:D 0.000118517
4 *1419:D *1438:RN 2.03826e-05
5 *1419:D *191:20 0
6 *1419:D *274:159 0.000112735
7 *1419:D *333:14 0.00038018
*RES
1 *1388:Z *1419:D 13.95 
*END

*D_NET *80 0.00226164
*CONN
*I *1420:D I *D gf180mcu_fd_sc_mcu7t5v0__dffrnq_1
*I *1389:Z O *D gf180mcu_fd_sc_mcu7t5v0__mux2_2
*CAP
1 *1420:D 0.000605929
2 *1389:Z 0.000605929
3 *1420:D *1323:A1 0.00019431
4 *1420:D *1438:RN 5.90985e-05
5 *1420:D *274:159 0.000537798
6 *1420:D *317:24 3.99444e-05
7 *1420:D *334:14 0.000100113
8 *1419:D *1420:D 0.000118517
*RES
1 *1389:Z *1420:D 14.49 
*END

*D_NET *81 0.0048919
*CONN
*I *1421:D I *D gf180mcu_fd_sc_mcu7t5v0__dffrnq_1
*I *1390:Z O *D gf180mcu_fd_sc_mcu7t5v0__mux2_2
*CAP
1 *1421:D 0.00089816
2 *1390:Z 0.00089816
3 *1421:D *397:I 0.000260411
4 *1421:D *441:I 0.000312301
5 *1421:D *1390:I0 0.00212612
6 *1421:D *1390:S 9.9689e-05
7 *1421:D *1441:CLK 5.14931e-05
8 *1421:D *191:20 6.12687e-06
9 *1421:D *191:34 0.000149891
10 *1421:D *322:16 3.99807e-05
11 *1421:D *327:53 4.95733e-05
*RES
1 *1390:Z *1421:D 26.82 
*END

*D_NET *82 0.00331861
*CONN
*I *1422:D I *D gf180mcu_fd_sc_mcu7t5v0__dffrnq_1
*I *1391:Z O *D gf180mcu_fd_sc_mcu7t5v0__mux2_2
*CAP
1 *1422:D 0.000997216
2 *1391:Z 0.000997216
3 *1422:D *355:I 8.91829e-05
4 *1422:D *406:I 5.40416e-05
5 *1422:D *441:I 7.31361e-06
6 *1422:D *1335:A2 4.89328e-05
7 *1422:D *1391:I0 3.41666e-06
8 *1422:D *1441:CLK 9.85004e-05
9 *1422:D *1473:I 0.00019364
10 *1422:D *1530:I 2.36722e-05
11 *1422:D *1531:I 8.47023e-06
12 *1422:D *1558:I 0.000267907
13 *1422:D *208:249 0.000241817
14 *1422:D *274:155 7.12767e-05
15 *1422:D *284:12 1.36173e-05
16 *1422:D *318:10 0.000202394
*RES
1 *1391:Z *1422:D 25.47 
*END

*D_NET *83 0.00249092
*CONN
*I *1423:D I *D gf180mcu_fd_sc_mcu7t5v0__dffrnq_1
*I *1392:Z O *D gf180mcu_fd_sc_mcu7t5v0__mux2_2
*CAP
1 *1423:D 6.34583e-05
2 *1392:Z 6.34583e-05
3 *1423:D *350:I 0.001182
4 *1423:D *1392:I0 0.001182
*RES
1 *1392:Z *1423:D 21.15 
*END

*D_NET *84 0.00149597
*CONN
*I *1424:D I *D gf180mcu_fd_sc_mcu7t5v0__dffrnq_1
*I *1393:Z O *D gf180mcu_fd_sc_mcu7t5v0__mux2_2
*CAP
1 *1424:D 0.000554421
2 *1393:Z 0.000554421
3 *1424:D *1393:I1 0.000384802
4 *1424:D *1393:S 2.33093e-06
5 *1424:D *1474:I 0
6 *1424:D *1560:I 0
*RES
1 *1393:Z *1424:D 31.05 
*END

*D_NET *85 0.00470625
*CONN
*I *1425:D I *D gf180mcu_fd_sc_mcu7t5v0__dffrnq_1
*I *1394:Z O *D gf180mcu_fd_sc_mcu7t5v0__mux2_2
*CAP
1 *1425:D 0.000882504
2 *1394:Z 0.000882504
3 *1425:D *406:I 0.00128434
4 *1425:D *451:I 1.6333e-06
5 *1425:D *1392:I0 3.08015e-05
6 *1425:D *1514:I 6.67019e-06
7 *1425:D *248:89 0.000413249
8 *1425:D *284:24 9.19699e-05
9 *1425:D *284:31 0
10 *1425:D *322:16 6.44606e-06
11 *1425:D *337:29 5.06228e-05
12 *1425:D *338:28 0.00055872
13 *1442:D *1425:D 0.000496785
*RES
1 *1394:Z *1425:D 26.82 
*END

*D_NET *86 0.0175511
*CONN
*I *1426:D I *D gf180mcu_fd_sc_mcu7t5v0__dffrnq_1
*I *1396:ZN O *D gf180mcu_fd_sc_mcu7t5v0__nor2_1
*CAP
1 *1426:D 0.000965029
2 *1396:ZN 0.00391217
3 *86:18 0.0048772
4 *1426:D *391:I 0
5 *1426:D *1262:I 5.30751e-05
6 *1426:D *1361:A1 1.22516e-05
7 *1426:D *1426:CLK 5.77401e-05
8 *1426:D *1448:RN 4.96595e-05
9 *1426:D *1449:RN 4.6613e-06
10 *1426:D *1459:CLK 2.8764e-06
11 *1426:D *1573:I 4.41268e-05
12 *1426:D *1575:I 0.000491186
13 *1426:D *209:6 2.1573e-06
14 *1426:D *243:8 5.0784e-05
15 *1426:D *244:39 9.38633e-05
16 *86:18 *1259:I 0.000409211
17 *86:18 *1271:A2 0.000438291
18 *86:18 *1360:A2 0.000206988
19 *86:18 *1360:B 0.000177361
20 *86:18 *1374:B1 8.78844e-05
21 *86:18 *1396:A2 5.92728e-05
22 *86:18 *1567:I 1.56862e-05
23 *86:18 *1570:I 0
24 *86:18 *120:12 0
25 *86:18 *120:69 8.28517e-05
26 *86:18 *177:24 0.000368372
27 *86:18 *206:43 0.000141639
28 *86:18 *210:17 2.21374e-05
29 *86:18 *210:23 0.000121726
30 *86:18 *273:61 7.03878e-07
31 *86:18 *280:48 0.000734092
32 *86:18 *296:34 0.00238397
33 *86:18 *298:76 0
34 *86:18 *341:14 0.000461879
35 dac_p[2] *1426:D 0.0012036
36 *1456:D *1426:D 1.86452e-05
37 *47:8 *1426:D 0
*RES
1 *1396:ZN *86:18 46.62 
2 *86:18 *1426:D 17.01 
*END

*D_NET *87 0.00561686
*CONN
*I *1427:D I *D gf180mcu_fd_sc_mcu7t5v0__dffsnq_1
*I *1398:Z O *D gf180mcu_fd_sc_mcu7t5v0__mux2_2
*CAP
1 *1427:D 0.000691926
2 *1398:Z 0.000691926
3 *1427:D *1398:I1 0.000121064
4 *1427:D *1398:S 0
5 *1427:D *1400:A1 4.7365e-05
6 *1427:D *1459:SETN 0.000216299
7 *1427:D *1467:CLK 0.00103714
8 *1427:D *1486:I 3.12451e-05
9 *1427:D *109:24 0.000871819
10 *1427:D *276:46 0.000838537
11 *1427:D *276:91 2.88469e-05
12 *1427:D *290:151 2.08301e-05
13 *1427:D *308:20 0.000406367
14 *1445:D *1427:D 0.000613495
*RES
1 *1398:Z *1427:D 27.27 
*END

*D_NET *88 0.00218862
*CONN
*I *1428:D I *D gf180mcu_fd_sc_mcu7t5v0__dffrnq_1
*I *1400:ZN O *D gf180mcu_fd_sc_mcu7t5v0__oai32_4
*CAP
1 *1428:D 0.000194505
2 *1400:ZN 0.000194505
3 *1428:D *1357:B 5.25269e-05
4 *1428:D *1400:A2 0.000217198
5 *1428:D *1401:A2 6.68761e-06
6 *1428:D *1428:CLK 2.96178e-05
7 *1428:D *276:46 0.000888967
8 *1428:D *308:20 0.000387412
9 *1428:D *340:37 0.000217198
*RES
1 *1400:ZN *1428:D 30.69 
*END

*D_NET *89 0.00439132
*CONN
*I *1429:D I *D gf180mcu_fd_sc_mcu7t5v0__dffrnq_2
*I *1404:ZN O *D gf180mcu_fd_sc_mcu7t5v0__oai21_1
*CAP
1 *1429:D 0.000548483
2 *1404:ZN 0.000548483
3 *1429:D *1366:A2 0.000336348
4 *1429:D *1404:A2 0.00211643
5 *1429:D *1510:I 0.000123881
6 *1429:D *1548:I 2.36914e-05
7 *1429:D *97:14 0.000229426
8 *1429:D *208:19 0.000121555
9 *1429:D *276:46 0.000343021
*RES
1 *1404:ZN *1429:D 25.11 
*END

*D_NET *90 0.00373284
*CONN
*I *1430:D I *D gf180mcu_fd_sc_mcu7t5v0__dffsnq_1
*I *1406:Z O *D gf180mcu_fd_sc_mcu7t5v0__and2_1
*CAP
1 *1430:D 0.000768113
2 *1406:Z 0.000768113
3 *1430:D *400:I 0.000339824
4 *1430:D *1406:A2 2.19964e-05
5 *1430:D *1430:CLK 0
6 *1430:D *1509:I 3.01487e-05
7 *1430:D *1511:I 0.000207857
8 *1430:D *96:14 1.45341e-05
9 *1430:D *97:14 0.000566282
10 *1430:D *108:27 0.000930175
11 *1430:D *172:22 7.15282e-05
12 *1430:D *302:10 1.42732e-05
*RES
1 *1406:Z *1430:D 25.74 
*END

*D_NET *91 0.00139126
*CONN
*I *1431:D I *D gf180mcu_fd_sc_mcu7t5v0__dffrnq_1
*I *1409:ZN O *D gf180mcu_fd_sc_mcu7t5v0__oai22_1
*CAP
1 *1431:D 0.000361097
2 *1409:ZN 0.000361097
3 *1431:D *377:I 3.73774e-06
4 *1431:D *99:12 4.873e-05
5 *1431:D *99:14 0.000185331
6 *1431:D *99:16 1.09982e-05
7 *1431:D *121:24 0.000139367
8 *1431:D *310:16 0.000280904
*RES
1 *1409:ZN *1431:D 20.97 
*END

*D_NET *92 0.00257799
*CONN
*I *1432:D I *D gf180mcu_fd_sc_mcu7t5v0__dffrnq_1
*I *1413:ZN O *D gf180mcu_fd_sc_mcu7t5v0__oai22_1
*CAP
1 *1432:D 0.000471679
2 *1413:ZN 0.000471679
3 *1432:D *415:I 9.05452e-05
4 *1432:D *1297:A1 7.45446e-05
5 *1432:D *1415:A2 0.000293885
6 *1432:D *123:65 5.38121e-05
7 *1432:D *296:116 0.000111186
8 *1432:D *310:16 0.000293885
9 *1460:D *1432:D 0.000716774
*RES
1 *1413:ZN *1432:D 31.59 
*END

*D_NET *93 0.00494447
*CONN
*I *1433:D I *D gf180mcu_fd_sc_mcu7t5v0__dffrnq_1
*I *1415:ZN O *D gf180mcu_fd_sc_mcu7t5v0__aoi21_1
*CAP
1 *1433:D 0.000750134
2 *1415:ZN 0.000750134
3 *1433:D *1274:A1 0.000223281
4 *1433:D *1299:B 6.89668e-06
5 *1433:D *1301:A2 0.000314134
6 *1433:D *1375:A3 0.00125287
7 *1433:D *1415:A2 0.000400869
8 *1433:D *1415:B 8.60472e-05
9 *1433:D *1432:RN 7.66375e-05
10 *1433:D *1433:CLK 2.63104e-05
11 *1434:D *1433:D 0.000868424
12 *1460:D *1433:D 0.000188735
*RES
1 *1415:ZN *1433:D 17.55 
*END

*D_NET *94 0.0231993
*CONN
*I *1341:A1 I *D gf180mcu_fd_sc_mcu7t5v0__nor4_4
*I *1325:A1 I *D gf180mcu_fd_sc_mcu7t5v0__nor4_4
*I *1312:A1 I *D gf180mcu_fd_sc_mcu7t5v0__and3_1
*I *1399:A1 I *D gf180mcu_fd_sc_mcu7t5v0__oai22_4
*I *1398:S I *D gf180mcu_fd_sc_mcu7t5v0__mux2_2
*I *1246:ZN O *D gf180mcu_fd_sc_mcu7t5v0__inv_2
*CAP
1 *1341:A1 8.54907e-05
2 *1325:A1 0.000317213
3 *1312:A1 0.00025913
4 *1399:A1 3.59472e-05
5 *1398:S 0.00128041
6 *1246:ZN 0.00115951
7 *94:54 0.00110809
8 *94:37 0.0014932
9 *94:16 0.00327994
10 *1312:A1 *1328:B 1.27427e-05
11 *1312:A1 *1356:C 1.35491e-05
12 *1312:A1 *230:41 0.000153258
13 *1312:A1 *268:25 2.72423e-05
14 *1325:A1 *368:I 0
15 *1325:A1 *1544:I 0.000955569
16 *1325:A1 *230:41 4.30304e-05
17 *1325:A1 *243:67 0.000842216
18 *1325:A1 *268:25 1.37521e-05
19 *1341:A1 *1544:I 3.37634e-05
20 *1341:A1 *268:25 0.000345267
21 *1341:A1 *290:40 1.36506e-05
22 *1398:S *1350:A2 0
23 *1398:S *1398:I0 3.43442e-05
24 *1398:S *1398:I1 9.26477e-05
25 *1398:S *1445:RN 0
26 *1398:S *1467:D 7.18089e-05
27 *1398:S *1486:I 2.28492e-05
28 *1398:S *240:23 0
29 *1398:S *269:29 0.000307908
30 *1398:S *340:18 3.12451e-05
31 *1399:A1 *1400:A3 0.000158798
32 *1399:A1 *240:23 2.16941e-05
33 *1399:A1 *291:79 1.61174e-05
34 *94:16 *1246:I 3.95948e-05
35 *94:16 *1354:B 0.0017628
36 *94:16 *1361:A1 0.000155035
37 *94:16 *1366:B 2.08301e-05
38 *94:16 *1400:A1 0.000148506
39 *94:16 *120:18 0.000225943
40 *94:16 *168:26 0.00117011
41 *94:16 *289:14 7.26211e-05
42 *94:37 *1264:I 0.000479911
43 *94:37 *1400:A1 0
44 *94:37 *1427:SETN 2.76074e-05
45 *94:37 *1428:RN 6.55391e-06
46 *94:37 *1486:I 1.28932e-05
47 *94:37 *216:8 1.95322e-05
48 *94:37 *230:41 0.00070489
49 *94:37 *240:23 0
50 *94:37 *272:59 0.000102385
51 *94:54 *1356:A1 0.000123843
52 *94:54 *1359:B 0.000731403
53 *94:54 *208:107 0.000123968
54 *94:54 *230:41 0.00127637
55 *94:54 *272:59 0.000213972
56 dac_p[2] *94:16 0.00213868
57 dac_p[6] *94:16 9.85004e-05
58 dac_p[7] *94:16 0
59 *1427:D *1398:S 0
60 *1456:D *94:16 0.00131298
*RES
1 *1246:ZN *94:16 28.98 
2 *94:16 *1398:S 12.15 
3 *94:16 *94:37 10.8 
4 *94:37 *1399:A1 9.45 
5 *94:37 *94:54 11.61 
6 *94:54 *1312:A1 6.39 
7 *94:54 *1325:A1 8.37 
8 *1325:A1 *1341:A1 9.99 
*END

*D_NET *95 0.0116128
*CONN
*I *1311:A2 I *D gf180mcu_fd_sc_mcu7t5v0__nor2_2
*I *1307:A2 I *D gf180mcu_fd_sc_mcu7t5v0__and3_1
*I *1329:A2 I *D gf180mcu_fd_sc_mcu7t5v0__nor4_4
*I *1400:B2 I *D gf180mcu_fd_sc_mcu7t5v0__oai32_4
*I *1247:ZN O *D gf180mcu_fd_sc_mcu7t5v0__inv_2
*CAP
1 *1311:A2 0.000106549
2 *1307:A2 0.000430616
3 *1329:A2 0
4 *1400:B2 0.000687169
5 *1247:ZN 3.59401e-05
6 *95:16 0.00205983
7 *95:8 0.00194576
8 *1307:A2 *1318:A1 7.28823e-05
9 *1307:A2 *1347:B 0.00131584
10 *1307:A2 *1350:B 0.000404806
11 *1307:A2 *1353:B1 8.16511e-05
12 *1307:A2 *1354:B 7.80245e-05
13 *1307:A2 *1360:A2 3.08806e-06
14 *1307:A2 *140:12 0.000560761
15 *1307:A2 *277:18 0.000409804
16 *1307:A2 *277:27 0.000588169
17 *1307:A2 *289:14 2.15171e-05
18 *1311:A2 *1270:A2 4.36384e-06
19 *1311:A2 *1398:I1 3.01487e-05
20 *1311:A2 *1400:A2 0.000422663
21 *1311:A2 *192:8 6.02974e-05
22 *1311:A2 *230:41 0.000198695
23 *1311:A2 *302:27 0
24 *1400:B2 *1349:A1 0.000385601
25 *1400:B2 *1400:A2 0.00107921
26 *1400:B2 *1572:I 0.000419645
27 *1400:B2 *230:41 0
28 *1400:B2 *280:10 1.47172e-05
29 *1400:B2 *290:129 0
30 *1400:B2 *290:188 0
31 *1400:B2 *291:79 7.94868e-06
32 *95:8 *1350:B 0.000158632
33 *95:8 *1354:B 2.82657e-05
34 *95:16 *208:123 2.44668e-07
35 *95:16 *230:41 0
*RES
1 *1247:ZN *95:8 9.45 
2 *95:8 *95:16 14.94 
3 *95:16 *1400:B2 15.03 
4 *95:16 *1329:A2 9 
5 *95:8 *1307:A2 15.75 
6 *1400:B2 *1311:A2 19.62 
*END

*D_NET *96 0.0174703
*CONN
*I *1341:A3 I *D gf180mcu_fd_sc_mcu7t5v0__nor4_4
*I *1405:B I *D gf180mcu_fd_sc_mcu7t5v0__oai21_1
*I *1336:A1 I *D gf180mcu_fd_sc_mcu7t5v0__nor2_1
*I *1248:ZN O *D gf180mcu_fd_sc_mcu7t5v0__clkinv_1
*CAP
1 *1341:A3 0.000704113
2 *1405:B 7.40638e-05
3 *1336:A1 0.000714736
4 *1248:ZN 0.000453917
5 *96:14 0.00124173
6 *96:12 0.00161096
7 *1336:A1 *1249:I 0.00146843
8 *1336:A1 *1372:B 0.000177559
9 *1336:A1 *1373:A2 0.00108304
10 *1336:A1 *1379:A1 7.69936e-06
11 *1336:A1 *1404:B 0.000141683
12 *1336:A1 *1511:I 0.00143168
13 *1336:A1 *1598:I 2.56651e-06
14 *1336:A1 *104:12 0.00015651
15 *1336:A1 *120:69 7.96467e-05
16 *1336:A1 *196:10 0.000185923
17 *1336:A1 *206:43 4.83522e-05
18 *1341:A3 *1325:A4 0.000232658
19 *1341:A3 *1337:A1 1.4382e-06
20 *1341:A3 *1343:A2 0
21 *1341:A3 *1349:A1 3.70356e-05
22 *1341:A3 *108:43 0.000354728
23 *1341:A3 *118:14 4.42173e-05
24 *1341:A3 *159:12 2.89427e-06
25 *1341:A3 *172:22 0.000498966
26 *1405:B *1405:A1 6.06287e-05
27 *1405:B *208:19 3.61281e-05
28 *1405:B *274:14 5.78854e-06
29 *96:12 *1248:I 0.000435856
30 *96:12 *1521:I 0.000157039
31 *96:12 *1550:I 0.000766753
32 *96:12 *123:45 0.000687292
33 *96:12 *290:188 0.00156677
34 *96:14 *1511:I 0.000478079
35 *96:14 *118:14 0.000265275
36 *96:14 *172:22 0.00195888
37 *96:14 *196:10 0.000282733
38 *1430:D *96:14 1.45341e-05
*RES
1 *1248:ZN *96:12 16.47 
2 *96:12 *96:14 6.93 
3 *96:14 *1336:A1 18.9 
4 *96:14 *1405:B 9.63 
5 *96:12 *1341:A3 14.04 
*END

*D_NET *97 0.0120561
*CONN
*I *1329:A4 I *D gf180mcu_fd_sc_mcu7t5v0__nor4_4
*I *1321:A2 I *D gf180mcu_fd_sc_mcu7t5v0__nor2_4
*I *1404:A1 I *D gf180mcu_fd_sc_mcu7t5v0__oai21_1
*I *1337:A2 I *D gf180mcu_fd_sc_mcu7t5v0__and3_1
*I *1325:A4 I *D gf180mcu_fd_sc_mcu7t5v0__nor4_4
*I *1249:ZN O *D gf180mcu_fd_sc_mcu7t5v0__inv_2
*CAP
1 *1329:A4 0.000454213
2 *1321:A2 0.000131985
3 *1404:A1 0
4 *1337:A2 0.000315986
5 *1325:A4 0.0006501
6 *1249:ZN 0.00015389
7 *97:60 0.000906059
8 *97:14 0.00180588
9 *97:8 0.00131355
10 *1321:A2 *1329:A1 6.01893e-05
11 *1321:A2 *208:123 1.86887e-06
12 *1325:A4 *1337:A1 0
13 *1325:A4 *1341:A4 3.58729e-05
14 *1325:A4 *1349:A1 0.000530707
15 *1329:A4 *368:I 3.98088e-05
16 *1329:A4 *1544:I 9.85004e-05
17 *1329:A4 *208:123 0.000198514
18 *1329:A4 *290:55 1.18076e-05
19 *1329:A4 *290:61 4.29222e-05
20 *1337:A2 *1337:A1 1.80607e-05
21 *1337:A2 *1430:SETN 7.97427e-05
22 *1337:A2 *108:27 0.000118622
23 *1337:A2 *108:43 7.6119e-05
24 *1337:A2 *312:14 1.5931e-05
25 *97:8 *1249:I 0.000396255
26 *97:8 *1404:B 4.33758e-05
27 *97:8 *1510:I 2.08301e-05
28 *97:8 *104:12 8.12023e-06
29 *97:14 *400:I 0.00012921
30 *97:14 *1366:A2 3.18106e-05
31 *97:14 *1404:A2 0.000110823
32 *97:14 *1430:SETN 0.000148346
33 *97:14 *1509:I 0.000284633
34 *97:14 *1510:I 0.000354719
35 *97:14 *1548:I 1.7022e-05
36 *97:14 *108:27 0.000176249
37 *97:14 *302:10 0.00014046
38 *97:14 *302:18 0.00171043
39 *97:60 *1329:A1 2.31089e-05
40 *97:60 *1337:A1 6.99395e-05
41 *97:60 *229:51 5.99095e-05
42 *97:60 *290:61 0.00024216
43 *1341:A3 *1325:A4 0.000232658
44 *1429:D *97:14 0.000229426
45 *1430:D *97:14 0.000566282
*RES
1 *1249:ZN *97:8 5.94 
2 *97:8 *97:14 17.1 
3 *97:14 *1325:A4 12.51 
4 *97:14 *1337:A2 11.16 
5 *97:8 *1404:A1 4.5 
6 *1325:A4 *97:60 7.2 
7 *97:60 *1321:A2 5.31 
8 *97:60 *1329:A4 16.74 
*END

*D_NET *98 0.00902101
*CONN
*I *1276:A1 I *D gf180mcu_fd_sc_mcu7t5v0__nor2_1
*I *1410:A1 I *D gf180mcu_fd_sc_mcu7t5v0__nand4_1
*I *1250:ZN O *D gf180mcu_fd_sc_mcu7t5v0__clkinv_1
*CAP
1 *1276:A1 0.000376413
2 *1410:A1 3.58975e-05
3 *1250:ZN 0.00102811
4 *98:12 0.00144042
5 *1276:A1 *1252:I 0
6 *1276:A1 *1276:A2 6.34944e-05
7 *1276:A1 *1410:A2 8.67164e-05
8 *1276:A1 *1554:I 0.00103583
9 *1276:A1 *111:12 6.94076e-05
10 *1410:A1 *1529:I 9.04462e-05
11 *98:12 *360:I 0.000437679
12 *98:12 *1250:I 0.00114182
13 *98:12 *1301:B1 0.00174334
14 *98:12 *1529:I 0.000183755
15 *98:12 *1554:I 0.000139014
16 *98:12 *1569:I 0.000152006
17 *98:12 *111:8 0.000126524
18 *98:12 *120:81 9.6028e-05
19 *98:12 *121:24 9.85224e-05
20 *443:I *1276:A1 9.0278e-05
21 *443:I *98:12 0.000114192
22 *1541:I *98:12 0.000212746
23 *4:30 *1276:A1 0.000258372
*RES
1 *1250:ZN *98:12 25.92 
2 *98:12 *1410:A1 4.77 
3 *98:12 *1276:A1 18.09 
*END

*D_NET *99 0.0114448
*CONN
*I *1279:A1 I *D gf180mcu_fd_sc_mcu7t5v0__nor2_1
*I *1414:A1 I *D gf180mcu_fd_sc_mcu7t5v0__or4_1
*I *1408:B I *D gf180mcu_fd_sc_mcu7t5v0__oai31_1
*I *1409:A1 I *D gf180mcu_fd_sc_mcu7t5v0__oai22_1
*I *1275:A1 I *D gf180mcu_fd_sc_mcu7t5v0__nand3_1
*I *1251:ZN O *D gf180mcu_fd_sc_mcu7t5v0__clkinv_1
*CAP
1 *1279:A1 2.05649e-05
2 *1414:A1 0
3 *1408:B 8.58345e-05
4 *1409:A1 0
5 *1275:A1 0.000744696
6 *1251:ZN 0.00146533
7 *99:44 0.000444943
8 *99:16 0.000759318
9 *99:14 0.000480146
10 *99:12 0.00159231
11 *1275:A1 *1252:I 0.000199353
12 *1275:A1 *1409:B1 0.000207038
13 *1275:A1 *1412:A2 3.48902e-05
14 *1275:A1 *1527:I 0.000168683
15 *1275:A1 *1528:I 9.63355e-05
16 *1275:A1 *1554:I 0.000467278
17 *1275:A1 *100:58 0.00020621
18 *1275:A1 *100:64 6.50776e-05
19 *1275:A1 *121:24 1.49862e-05
20 *1275:A1 *311:6 0.000169524
21 *1279:A1 *271:8 1.46655e-05
22 *1279:A1 *310:16 9.76589e-05
23 *1408:B *1375:A3 0.000383082
24 *1408:B *1409:B2 0.000268865
25 *1408:B *296:116 4.06197e-05
26 *99:12 *415:I 3.43888e-05
27 *99:12 *1251:I 0.00087249
28 *99:12 *1274:A1 0.00015264
29 *99:12 *1274:A2 0
30 *99:12 *1277:A3 5.19366e-05
31 *99:12 *1279:A2 5.79737e-05
32 *99:12 *1282:A2 7.09037e-05
33 *99:12 *1352:A1 5.85014e-05
34 *99:12 *1569:I 1.7611e-05
35 *99:12 *121:24 1.64523e-05
36 *99:12 *227:31 0
37 *99:14 *1279:A2 2.63343e-05
38 *99:14 *1412:A2 0.000476322
39 *99:16 *1412:A2 0.000100647
40 *99:16 *121:24 1.97681e-06
41 *99:44 *1299:B 0.00084757
42 *99:44 *1375:A3 0.000135174
43 *99:44 *296:116 0.000164863
44 *1431:D *99:12 4.873e-05
45 *1431:D *99:14 0.000185331
46 *1431:D *99:16 1.09982e-05
47 *1460:D *99:12 0
48 *4:30 *1275:A1 8.65338e-05
*RES
1 *1251:ZN *99:12 18.81 
2 *99:12 *99:14 1.53 
3 *99:14 *99:16 0.27 
4 *99:16 *1275:A1 15.21 
5 *99:16 *1409:A1 9 
6 *99:14 *99:44 11.88 
7 *99:44 *1408:B 10.17 
8 *99:44 *1414:A1 9 
9 *99:12 *1279:A1 9.27 
*END

*D_NET *100 0.0195468
*CONN
*I *1275:A2 I *D gf180mcu_fd_sc_mcu7t5v0__nand3_1
*I *1410:A3 I *D gf180mcu_fd_sc_mcu7t5v0__nand4_1
*I *1413:A1 I *D gf180mcu_fd_sc_mcu7t5v0__oai22_1
*I *1414:A2 I *D gf180mcu_fd_sc_mcu7t5v0__or4_1
*I *1281:A2 I *D gf180mcu_fd_sc_mcu7t5v0__nand4_1
*I *1280:A2 I *D gf180mcu_fd_sc_mcu7t5v0__nand3_1
*I *1252:ZN O *D gf180mcu_fd_sc_mcu7t5v0__clkinv_1
*CAP
1 *1275:A2 0.000127127
2 *1410:A3 7.18974e-05
3 *1413:A1 0
4 *1414:A2 0.000278089
5 *1281:A2 0
6 *1280:A2 0.000174441
7 *1252:ZN 0.000464202
8 *100:64 0.0005996
9 *100:58 0.000600702
10 *100:54 0.00112946
11 *100:31 0.00139097
12 *100:16 0.00123458
13 *1275:A2 *1527:I 0.000285859
14 *1275:A2 *1528:I 9.3226e-06
15 *1275:A2 *1554:I 0.000376832
16 *1275:A2 *111:28 0.000205374
17 *1280:A2 *1280:A1 0.00111928
18 *1280:A2 *1288:A2 2.09032e-05
19 *1280:A2 *1571:I 0.00103237
20 *1280:A2 *121:24 1.17652e-05
21 *1280:A2 *296:34 8.73419e-05
22 *1410:A3 *1299:A2 5.78854e-06
23 *1410:A3 *1408:A3 0.000612267
24 *1410:A3 *1488:I 0.000672564
25 *1414:A2 *1409:B2 0.000417039
26 *1414:A2 *1413:A2 1.0415e-05
27 *1414:A2 *127:12 0.000148813
28 *1414:A2 *198:26 0.000303284
29 *100:16 *1381:A1 0.000415708
30 *100:16 *1381:A2 0.000492033
31 *100:16 *1382:A2 0.000680575
32 *100:16 *1396:A2 0.000583544
33 *100:16 *1460:RN 1.70328e-05
34 *100:16 *1567:I 1.36702e-05
35 *100:16 *121:24 1.86887e-06
36 *100:16 *296:34 7.72112e-05
37 *100:16 *298:76 7.86261e-05
38 *100:16 *341:14 0.000378295
39 *100:31 *1382:A1 0.000334508
40 *100:31 *1460:CLK 0.000595137
41 *100:31 *1465:RN 2.91887e-05
42 *100:31 *210:17 0.000467871
43 *100:31 *239:97 0.00131163
44 *100:31 *288:26 4.93289e-06
45 *100:31 *288:32 6.81857e-06
46 *100:31 *341:14 8.98781e-05
47 *100:54 *1281:A1 0.000205474
48 *100:54 *1293:A2 2.44598e-07
49 *100:54 *1299:A2 0.000172894
50 *100:54 *1382:A1 0.00020664
51 *100:54 *1465:RN 0.000160181
52 *100:54 *1527:I 0.000214612
53 *100:54 *1553:I 0
54 *100:54 *306:8 9.34436e-06
55 *100:54 *341:14 4.91773e-05
56 *100:58 *1299:A2 0.000145556
57 *100:58 *1528:I 0.000216002
58 *100:58 *121:24 9.62268e-05
59 *100:64 *121:24 0.00069671
60 *1275:A1 *100:58 0.00020621
61 *1275:A1 *100:64 6.50776e-05
62 *1458:D *100:16 3.30957e-05
63 *1462:D *100:54 2.33065e-05
64 *1464:D *100:54 7.72613e-05
*RES
1 *1252:ZN *100:16 19.8 
2 *100:16 *1280:A2 8.37 
3 *100:16 *100:31 15.48 
4 *100:31 *1281:A2 4.5 
5 *100:31 *100:54 15.03 
6 *100:54 *100:58 6.75 
7 *100:58 *100:64 7.02 
8 *100:64 *1414:A2 7.29 
9 *100:64 *1413:A1 4.5 
10 *100:58 *1410:A3 10.89 
11 *100:54 *1275:A2 6.39 
*END

*D_NET *101 0.0107381
*CONN
*I *1299:B I *D gf180mcu_fd_sc_mcu7t5v0__oai21_1
*I *1301:A1 I *D gf180mcu_fd_sc_mcu7t5v0__aoi22_1
*I *1253:ZN O *D gf180mcu_fd_sc_mcu7t5v0__clkinv_1
*CAP
1 *1299:B 0.00160863
2 *1301:A1 0
3 *1253:ZN 0.000818511
4 *101:16 0.00242714
5 *1299:B *378:I 3.71284e-05
6 *1299:B *415:I 0.000347925
7 *1299:B *1297:A1 1.89044e-05
8 *1299:B *1299:A1 1.56862e-05
9 *1299:B *1301:B1 0.000169185
10 *1299:B *1346:A1 4.70529e-06
11 *1299:B *1415:A2 5.19953e-06
12 *1299:B *1569:I 0.00016583
13 *1299:B *123:65 4.73522e-05
14 *1299:B *166:12 2.17429e-05
15 *1299:B *211:52 0.000219114
16 *1299:B *226:12 6.45797e-05
17 *1299:B *226:27 0.00149153
18 *101:16 *1253:I 4.15021e-05
19 *101:16 *1285:A1 8.22041e-06
20 *101:16 *1285:B 0.000491537
21 *101:16 *1415:A2 6.67196e-06
22 *101:16 *113:6 3.92905e-06
23 *101:16 *170:26 0.000133172
24 *101:16 *226:12 0
25 *101:16 *228:16 0.000871808
26 *101:16 *228:24 0.000145218
27 *101:16 *274:97 4.83522e-05
28 *101:16 *344:8 0.000388316
29 *101:16 *344:27 3.33212e-05
30 *443:I *1299:B 0.00016583
31 *1433:D *1299:B 6.89668e-06
32 *1434:D *1299:B 1.20019e-05
33 *1466:D *1299:B 7.05599e-05
34 *99:44 *1299:B 0.00084757
*RES
1 *1253:ZN *101:16 20.34 
2 *101:16 *1301:A1 4.5 
3 *101:16 *1299:B 35.01 
*END

*D_NET *102 0.00677484
*CONN
*I *1415:A1 I *D gf180mcu_fd_sc_mcu7t5v0__aoi21_1
*I *1254:ZN O *D gf180mcu_fd_sc_mcu7t5v0__clkinv_1
*CAP
1 *1415:A1 0.00112566
2 *1254:ZN 0.00112566
3 *1415:A1 *1251:I 0
4 *1415:A1 *1274:A1 0.000570894
5 *1415:A1 *1277:A3 2.61692e-05
6 *1415:A1 *1278:A1 0.000973595
7 *1415:A1 *1283:A1 0.000132276
8 *1415:A1 *1283:A2 3.22122e-05
9 *1415:A1 *1285:B 0.000169635
10 *1415:A1 *1352:A1 2.4878e-05
11 *1415:A1 *1463:RN 0
12 *1415:A1 *1601:I 0.000600783
13 *1415:A1 *113:6 0.000571449
14 *1415:A1 *113:10 0.000115902
15 *1415:A1 *228:16 0.00110701
16 *1415:A1 *344:8 0.000170746
17 *1415:A1 *344:27 2.79779e-05
*RES
1 *1254:ZN *1415:A1 30.69 
*END

*D_NET *103 0.00656717
*CONN
*I *1278:A2 I *D gf180mcu_fd_sc_mcu7t5v0__nor3_1
*I *1376:A1 I *D gf180mcu_fd_sc_mcu7t5v0__aoi21_1
*I *1255:ZN O *D gf180mcu_fd_sc_mcu7t5v0__clkinv_1
*CAP
1 *1278:A2 0.000490192
2 *1376:A1 0.00100433
3 *1255:ZN 0
4 *103:6 0.00149452
5 *1278:A2 *1273:A1 8.67249e-05
6 *1278:A2 *1278:A1 2.69868e-05
7 *1278:A2 *1296:A1 0.000336258
8 *1278:A2 *1296:A2 9.62694e-06
9 *1278:A2 *1296:A3 2.54987e-05
10 *1278:A2 *1300:A1 3.19159e-06
11 *1278:A2 *1407:C 9.19699e-05
12 *1278:A2 *1413:B2 4.86449e-05
13 *1278:A2 *127:12 0
14 *1278:A2 *248:65 1.16151e-05
15 *1376:A1 *431:I 0.000222797
16 *1376:A1 *1288:B 0.000112522
17 *1376:A1 *1290:A2 6.11145e-06
18 *1376:A1 *1296:A1 0.000112969
19 *1376:A1 *1377:A3 4.09373e-05
20 *1376:A1 *1407:A1 5.13982e-05
21 *1376:A1 *1542:I 0
22 *1376:A1 *105:14 1.56942e-05
23 *1376:A1 *224:19 0
24 *1376:A1 *279:10 0
25 *1455:D *1376:A1 0.0003417
26 *1462:D *1376:A1 0
27 *44:10 *1278:A2 0.00147918
28 *44:10 *1376:A1 0.000554298
*RES
1 *1255:ZN *103:6 9 
2 *103:6 *1376:A1 16.47 
3 *103:6 *1278:A2 14.67 
*END

*D_NET *104 0.0110585
*CONN
*I *1511:I I *D gf180mcu_fd_sc_mcu7t5v0__dlyb_1
*I *1510:I I *D gf180mcu_fd_sc_mcu7t5v0__dlyb_1
*I *1256:ZN O *D gf180mcu_fd_sc_mcu7t5v0__clkinv_1
*CAP
1 *1511:I 0.000228894
2 *1510:I 0.00066343
3 *1256:ZN 0.000769639
4 *104:12 0.00166196
5 *1510:I *400:I 0
6 *1510:I *1363:B 0.000228683
7 *1510:I *1366:A2 0.00027137
8 *1510:I *1404:B 0.000150744
9 *1510:I *1503:I 0.000294951
10 *1510:I *1548:I 4.8704e-06
11 *1510:I *265:38 3.16711e-05
12 *1511:I *400:I 0.000201539
13 *1511:I *1249:I 0.000168642
14 *1511:I *1406:A2 0.000585344
15 *1511:I *208:19 4.37435e-05
16 *1511:I *276:46 0.000169515
17 *104:12 *357:I 0.000104055
18 *104:12 *1249:I 0.000173701
19 *104:12 *1256:I 0.000679046
20 *104:12 *1383:A1 0.000541421
21 *104:12 *1383:A3 8.21472e-05
22 *104:12 *1404:B 0.000283705
23 *104:12 *1452:CLK 2.55621e-05
24 *104:12 *1503:I 0
25 *104:12 *1548:I 1.90777e-06
26 *104:12 *126:10 0.000433894
27 *104:12 *273:10 0.000455451
28 *104:12 *305:12 2.09032e-05
29 *1336:A1 *1511:I 0.00143168
30 *1336:A1 *104:12 0.00015651
31 *1429:D *1510:I 0.000123881
32 *1430:D *1511:I 0.000207857
33 *96:14 *1511:I 0.000478079
34 *97:8 *1510:I 2.08301e-05
35 *97:8 *104:12 8.12023e-06
36 *97:14 *1510:I 0.000354719
*RES
1 *1256:ZN *104:12 17.55 
2 *104:12 *1510:I 23.4 
3 *104:12 *1511:I 14.76 
*END

*D_NET *105 0.00942743
*CONN
*I *1407:A1 I *D gf180mcu_fd_sc_mcu7t5v0__oai221_4
*I *1508:I I *D gf180mcu_fd_sc_mcu7t5v0__buf_2
*I *1257:ZN O *D gf180mcu_fd_sc_mcu7t5v0__clkinv_1
*CAP
1 *1407:A1 0.00108843
2 *1508:I 0
3 *1257:ZN 0.000619842
4 *105:14 0.00170828
5 *1407:A1 *1290:A2 0.000850213
6 *1407:A1 *1369:A2 0.00140216
7 *1407:A1 *1372:A2 0
8 *1407:A1 *1374:B2 0.000352059
9 *1407:A1 *1377:A3 0.00025719
10 *1407:A1 *1407:B2 0.000153283
11 *1407:A1 *1548:I 2.65444e-06
12 *1407:A1 *224:12 0.000750109
13 *1407:A1 *231:50 4.88228e-06
14 *1407:A1 *279:10 6.73586e-05
15 *105:14 *431:I 6.66435e-05
16 *105:14 *1287:A2 0.00135553
17 *105:14 *1374:B2 0.00052467
18 *105:14 *1503:I 2.60524e-05
19 *105:14 *1548:I 2.01109e-05
20 *105:14 *287:20 5.5527e-06
21 *105:14 *287:44 1.3598e-05
22 *1376:A1 *1407:A1 5.13982e-05
23 *1376:A1 *105:14 1.56942e-05
24 *1452:D *105:14 9.17159e-05
*RES
1 *1257:ZN *105:14 19.71 
2 *105:14 *1508:I 4.5 
3 *105:14 *1407:A1 25.02 
*END

*D_NET *106 0.00479747
*CONN
*I *1401:A2 I *D gf180mcu_fd_sc_mcu7t5v0__aoi211_1
*I *1258:ZN O *D gf180mcu_fd_sc_mcu7t5v0__clkinv_1
*CAP
1 *1401:A2 0.000705002
2 *1258:ZN 0.000705002
3 *1401:A2 *422:I 7.20334e-05
4 *1401:A2 *1258:I 0.000548238
5 *1401:A2 *1402:A1 6.82028e-05
6 *1401:A2 *1404:A2 0.000720649
7 *1401:A2 *1428:CLK 0
8 *1401:A2 *208:19 5.46056e-06
9 *1401:A2 *276:46 0.00151859
10 *1401:A2 *290:151 0.000425401
11 *1401:A2 *340:37 2.22043e-05
12 *1428:D *1401:A2 6.68761e-06
*RES
1 *1258:ZN *1401:A2 17.37 
*END

*D_NET *107 0.00678374
*CONN
*I *1383:A1 I *D gf180mcu_fd_sc_mcu7t5v0__nand3_1
*I *1259:ZN O *D gf180mcu_fd_sc_mcu7t5v0__clkinv_1
*CAP
1 *1383:A1 0.00104898
2 *1259:ZN 0.00104898
3 *1383:A1 *1290:A2 0.000361193
4 *1383:A1 *1369:A2 0.000328446
5 *1383:A1 *1383:A3 0.000325226
6 *1383:A1 *1384:B 7.69468e-05
7 *1383:A1 *1460:CLK 0.000143647
8 *1383:A1 *1461:CLK 0.000476655
9 *1383:A1 *1464:CLK 0.00070242
10 *1383:A1 *126:10 0.00124284
11 *1383:A1 *210:6 6.83517e-05
12 *1383:A1 *223:12 0.000225322
13 *1383:A1 *305:8 8.5822e-05
14 *1383:A1 *305:12 4.68565e-05
15 *1464:D *1383:A1 6.06287e-05
16 *104:12 *1383:A1 0.000541421
*RES
1 *1259:ZN *1383:A1 31.23 
*END

*D_NET *108 0.0194395
*CONN
*I *1337:A3 I *D gf180mcu_fd_sc_mcu7t5v0__and3_1
*I *1356:B2 I *D gf180mcu_fd_sc_mcu7t5v0__aoi221_2
*I *1302:A2 I *D gf180mcu_fd_sc_mcu7t5v0__and2_1
*I *1401:B I *D gf180mcu_fd_sc_mcu7t5v0__aoi211_1
*I *1270:ZN O *D gf180mcu_fd_sc_mcu7t5v0__nor2_2
*CAP
1 *1337:A3 0
2 *1356:B2 0
3 *1302:A2 8.39016e-05
4 *1401:B 0
5 *1270:ZN 0.000611062
6 *108:43 0.00105986
7 *108:27 0.00152062
8 *108:14 0.00115572
9 *1302:A2 *1327:A1 0.000393252
10 *1302:A2 *1365:A1 0.000339278
11 *1302:A2 *143:31 7.98227e-05
12 *108:14 *1366:A2 0.000474472
13 *108:14 *1402:A2 0.000641425
14 *108:14 *1402:A3 0.000351066
15 *108:14 *206:14 0.000226231
16 *108:14 *218:41 0.000405367
17 *108:14 *233:20 2.21586e-05
18 *108:14 *280:31 5.44025e-05
19 *108:14 *289:99 0.000414426
20 *108:14 *292:47 3.44276e-05
21 *108:14 *293:54 0.000351066
22 *108:14 *302:27 0.000138576
23 *108:27 *1402:A3 0.000297094
24 *108:27 *1525:I 0.000856325
25 *108:27 *172:22 0.000318062
26 *108:27 *282:29 4.33758e-05
27 *108:27 *293:54 0.000515148
28 *108:27 *312:14 0.00055694
29 *108:43 *438:I 0.000172511
30 *108:43 *1326:B 9.85004e-05
31 *108:43 *1327:A1 0.000372112
32 *108:43 *1331:A1 9.0531e-06
33 *108:43 *1337:A1 1.08935e-05
34 *108:43 *1365:A1 0.0023865
35 *108:43 *1366:A2 0.000119086
36 *108:43 *1430:SETN 0.000100647
37 *108:43 *1518:I 0.000439866
38 *108:43 *144:52 0.00189388
39 *108:43 *172:22 0
40 *108:43 *207:12 0.000497805
41 *108:43 *243:67 0.000175082
42 *108:43 *312:14 2.32482e-05
43 *108:43 *336:31 0.000540357
44 *1337:A2 *108:27 0.000118622
45 *1337:A2 *108:43 7.6119e-05
46 *1341:A3 *108:43 0.000354728
47 *1430:D *108:27 0.000930175
48 *97:14 *108:27 0.000176249
*RES
1 *1270:ZN *108:14 20.79 
2 *108:14 *1401:B 4.5 
3 *108:14 *108:27 16.74 
4 *108:27 *108:43 23.4 
5 *108:43 *1302:A2 6.12 
6 *108:43 *1356:B2 4.5 
7 *108:27 *1337:A3 4.5 
*END

*D_NET *109 0.0122192
*CONN
*I *1546:I I *D gf180mcu_fd_sc_mcu7t5v0__dlyb_1
*I *1507:I I *D gf180mcu_fd_sc_mcu7t5v0__dlyb_1
*I *1271:ZN O *D gf180mcu_fd_sc_mcu7t5v0__nor2_1
*CAP
1 *1546:I 0.000111335
2 *1507:I 2.5653e-05
3 *1271:ZN 0.00191694
4 *109:24 0.00205393
5 *1507:I *1399:A2 2.2989e-05
6 *1507:I *1480:I 3.58674e-05
7 *1546:I *1399:A2 4.05839e-05
8 *1546:I *1480:I 8.90195e-05
9 *109:24 *391:I 4.85269e-06
10 *109:24 *1258:I 1.39839e-05
11 *109:24 *1357:A2 0.000390465
12 *109:24 *1360:A2 5.21541e-05
13 *109:24 *1398:I1 3.65687e-05
14 *109:24 *1400:A1 0.000285992
15 *109:24 *1501:I 0.00189242
16 *109:24 *1574:I 0.000218326
17 *109:24 *1598:I 0.000104322
18 *109:24 *120:18 0.000260026
19 *109:24 *243:21 0
20 *109:24 *265:38 0.000413077
21 *109:24 *276:46 0.000210822
22 *109:24 *290:151 0.00111189
23 *109:24 *301:10 0.00127219
24 *109:24 *308:20 6.23518e-05
25 *1427:D *109:24 0.000871819
26 *1456:D *109:24 0
27 *1459:D *109:24 0.000195133
28 *47:22 *109:24 0.000526535
*RES
1 *1271:ZN *109:24 43.56 
2 *109:24 *1507:I 4.77 
3 *109:24 *1546:I 5.31 
*END

*D_NET *110 0.0174336
*CONN
*I *1273:A2 I *D gf180mcu_fd_sc_mcu7t5v0__nor2_1
*I *1292:B1 I *D gf180mcu_fd_sc_mcu7t5v0__oai22_4
*I *1407:B1 I *D gf180mcu_fd_sc_mcu7t5v0__oai221_4
*I *1287:A2 I *D gf180mcu_fd_sc_mcu7t5v0__nand2_1
*I *1272:Z O *D gf180mcu_fd_sc_mcu7t5v0__or4_2
*CAP
1 *1273:A2 0.00163426
2 *1292:B1 0.000199827
3 *1407:B1 0.000203605
4 *1287:A2 0.000626762
5 *1272:Z 0.00101007
6 *110:37 0.000484264
7 *110:33 0.0023211
8 *110:14 0.00224283
9 *1273:A2 *1273:A1 0.000403788
10 *1273:A2 *1374:B2 6.56014e-05
11 *1273:A2 *1407:B2 0
12 *1273:A2 *1460:CLK 1.30288e-05
13 *1273:A2 *120:69 0
14 *1273:A2 *239:41 0
15 *1273:A2 *239:83 0
16 *1273:A2 *288:20 2.26978e-05
17 *1273:A2 *341:14 9.44336e-05
18 *1287:A2 *1287:A1 4.58052e-07
19 *1287:A2 *1367:A2 0.000196987
20 *1287:A2 *1374:B2 7.20183e-05
21 *1287:A2 *120:69 0.000660821
22 *1287:A2 *273:10 0.000433135
23 *1287:A2 *273:12 0.000245976
24 *1287:A2 *287:33 9.86031e-05
25 *1287:A2 *289:116 0.000216248
26 *1287:A2 *289:118 0.000534044
27 *1287:A2 *289:122 0.000472524
28 *1287:A2 *289:134 2.98735e-05
29 *1292:B1 *1273:A1 4.93145e-06
30 *1292:B1 *1292:B2 5.0613e-05
31 *1292:B1 *1372:A2 4.65895e-05
32 *1292:B1 *1430:CLK 2.00468e-05
33 *1407:B1 *1273:A1 0.000668891
34 *1407:B1 *1430:CLK 0
35 *110:14 *1294:A1 0.00011767
36 *110:14 *1397:A2 0.000809494
37 *110:14 *1402:A2 0
38 *110:14 *1406:A1 0
39 *110:14 *1505:I 9.5155e-05
40 *110:14 *192:8 1.58836e-05
41 *110:14 *206:14 0.000218691
42 *110:14 *287:20 7.48186e-05
43 *110:14 *289:99 7.191e-07
44 *110:14 *289:116 0
45 *110:14 *302:27 6.86807e-05
46 *110:33 *1374:B2 8.12986e-05
47 *110:33 *1376:A2 0.000552136
48 *110:33 *1407:B2 0
49 *110:33 *1505:I 7.06124e-06
50 *110:33 *239:41 0
51 *110:33 *276:147 4.49444e-05
52 *110:33 *287:20 0.000362509
53 *110:33 *287:33 1.30802e-05
54 *110:37 *1372:A2 0.000154318
55 *110:37 *280:72 0.000348951
56 *1469:I *1292:B1 1.96745e-05
57 *1469:I *110:37 1.894e-05
58 *105:14 *1287:A2 0.00135553
*RES
1 *1272:Z *110:14 16.2 
2 *110:14 *1287:A2 17.01 
3 *110:14 *110:33 9.36 
4 *110:33 *110:37 5.67 
5 *110:37 *1407:B1 10.89 
6 *110:37 *1292:B1 10.26 
7 *110:33 *1273:A2 22.86 
*END

*D_NET *111 0.0152702
*CONN
*I *1410:A4 I *D gf180mcu_fd_sc_mcu7t5v0__nand4_1
*I *1275:A3 I *D gf180mcu_fd_sc_mcu7t5v0__nand3_1
*I *1281:A4 I *D gf180mcu_fd_sc_mcu7t5v0__nand4_1
*I *1280:A3 I *D gf180mcu_fd_sc_mcu7t5v0__nand3_1
*I *1274:ZN O *D gf180mcu_fd_sc_mcu7t5v0__nor2_2
*CAP
1 *1410:A4 0
2 *1275:A3 0
3 *1281:A4 0
4 *1280:A3 0.00101103
5 *1274:ZN 0.000281947
6 *111:28 0.00189504
7 *111:12 0.000956111
8 *111:8 0.000354045
9 *1280:A3 *1281:A3 3.69577e-05
10 *1280:A3 *1288:B 0.000282448
11 *1280:A3 *1380:A1 0.000653698
12 *1280:A3 *1383:A3 0.000104488
13 *1280:A3 *1542:I 0.000352613
14 *1280:A3 *126:28 0.000407727
15 *1280:A3 *223:12 0.000229402
16 *1280:A3 *223:16 0.000403651
17 *1280:A3 *248:65 2.95568e-05
18 *111:8 *1282:A2 0.00213068
19 *111:8 *1554:I 0.00126953
20 *111:8 *112:17 6.51736e-05
21 *111:8 *121:24 0.000228434
22 *111:12 *1276:A2 0.000350769
23 *111:12 *1554:I 0.000643588
24 *111:12 *112:17 0.000515801
25 *111:28 *414:I 7.23958e-05
26 *111:28 *1281:A3 3.55118e-05
27 *111:28 *1382:A1 0.00122498
28 *111:28 *1383:A2 0
29 *111:28 *1383:A3 1.30063e-05
30 *111:28 *1526:I 2.99782e-05
31 *111:28 *1528:I 0.00012135
32 *111:28 *1553:I 7.34738e-05
33 *111:28 *121:24 6.36173e-05
34 *111:28 *126:28 5.9323e-05
35 *111:28 *309:23 0.000252413
36 *1275:A2 *111:28 0.000205374
37 *1276:A1 *111:12 6.94076e-05
38 *1377:A1 *1280:A3 1.39839e-05
39 *1461:D *1280:A3 0.000497814
40 *44:10 *1280:A3 0.000208378
41 *98:12 *111:8 0.000126524
*RES
1 *1274:ZN *111:8 15.03 
2 *111:8 *111:12 6.75 
3 *111:12 *111:28 17.1 
4 *111:28 *1280:A3 23.58 
5 *111:28 *1281:A4 4.5 
6 *111:12 *1275:A3 4.5 
7 *111:8 *1410:A4 9 
*END

*D_NET *112 0.0100525
*CONN
*I *1282:A2 I *D gf180mcu_fd_sc_mcu7t5v0__nand2_1
*I *1408:A3 I *D gf180mcu_fd_sc_mcu7t5v0__oai31_1
*I *1276:A2 I *D gf180mcu_fd_sc_mcu7t5v0__nor2_1
*I *1275:ZN O *D gf180mcu_fd_sc_mcu7t5v0__nand3_1
*CAP
1 *1282:A2 0.00111181
2 *1408:A3 0.000279485
3 *1276:A2 0.000222395
4 *1275:ZN 0
5 *112:17 0.00147672
6 *112:6 0.00030782
7 *1276:A2 *1252:I 9.47934e-05
8 *1282:A2 *415:I 6.22571e-05
9 *1282:A2 *1252:I 7.77436e-05
10 *1282:A2 *1274:A2 0.00073732
11 *1282:A2 *1279:A2 4.89321e-05
12 *1282:A2 *1283:A1 4.73175e-05
13 *1282:A2 *1283:A2 8.54857e-06
14 *1282:A2 *1297:A1 0.00010481
15 *1282:A2 *1297:A2 0.000475943
16 *1282:A2 *120:81 0.000102998
17 *1282:A2 *121:24 0.000139075
18 *1282:A2 *345:40 7.55765e-06
19 *1408:A3 *1299:A2 0.000155323
20 *1408:A3 *1375:A1 0.000221903
21 *1408:A3 *1375:A2 0.000221903
22 *1408:A3 *1488:I 0.000114661
23 *1408:A3 *345:25 2.67558e-05
24 *112:17 *1252:I 0.000104237
25 *1276:A1 *1276:A2 6.34944e-05
26 *1410:A3 *1408:A3 0.000612267
27 *1464:D *1282:A2 9.04462e-05
28 *1541:I *1282:A2 2.65444e-06
29 *99:12 *1282:A2 7.09037e-05
30 *111:8 *1282:A2 0.00213068
31 *111:8 *112:17 6.51736e-05
32 *111:12 *1276:A2 0.000350769
33 *111:12 *112:17 0.000515801
*RES
1 *1275:ZN *112:6 9 
2 *112:6 *1276:A2 10.89 
3 *112:6 *112:17 1.53 
4 *112:17 *1408:A3 12.33 
5 *112:17 *1282:A2 19.89 
*END

*D_NET *113 0.00708409
*CONN
*I *1285:A2 I *D gf180mcu_fd_sc_mcu7t5v0__oai21_1
*I *1298:A1 I *D gf180mcu_fd_sc_mcu7t5v0__or3_1
*I *1300:A1 I *D gf180mcu_fd_sc_mcu7t5v0__aoi211_2
*I *1278:A3 I *D gf180mcu_fd_sc_mcu7t5v0__nor3_1
*I *1277:ZN O *D gf180mcu_fd_sc_mcu7t5v0__nand3_1
*CAP
1 *1285:A2 0
2 *1298:A1 2.74526e-05
3 *1300:A1 0.000195958
4 *1278:A3 0
5 *1277:ZN 0.000410934
6 *113:16 0.000312556
7 *113:10 0.000557129
8 *113:6 0.000824013
9 *1298:A1 *1466:CLK 0.000158798
10 *1298:A1 *123:45 6.06389e-05
11 *1300:A1 *1300:A2 3.58729e-05
12 *1300:A1 *1413:B2 1.32067e-05
13 *1300:A1 *127:12 0.000205912
14 *113:6 *1285:B 1.27836e-05
15 *113:6 *1286:A2 6.99576e-05
16 *113:6 *1342:B 0
17 *113:6 *1463:RN 6.08092e-05
18 *113:10 *350:I 0.000547906
19 *113:10 *1278:A1 0.00209283
20 *113:10 *228:24 0.000295931
21 *113:16 *350:I 4.62496e-05
22 *113:16 *1278:A1 0.000360715
23 *113:16 *1407:C 2.73771e-05
24 *113:16 *127:12 6.06389e-05
25 *1278:A2 *1300:A1 3.19159e-06
26 *1415:A1 *113:6 0.000571449
27 *1415:A1 *113:10 0.000115902
28 *1463:D *113:6 0
29 *44:10 *113:16 1.19491e-05
30 *101:16 *113:6 3.92905e-06
*RES
1 *1277:ZN *113:6 8.55 
2 *113:6 *113:10 11.25 
3 *113:10 *113:16 5.94 
4 *113:16 *1278:A3 4.5 
5 *113:16 *1300:A1 6.03 
6 *113:10 *1298:A1 9.45 
7 *113:6 *1285:A2 4.5 
*END

*D_NET *114 0.00555585
*CONN
*I *1412:A2 I *D gf180mcu_fd_sc_mcu7t5v0__aoi22_1
*I *1279:ZN O *D gf180mcu_fd_sc_mcu7t5v0__nor2_1
*CAP
1 *1412:A2 0.00177165
2 *1279:ZN 0.00177165
3 *1412:A2 *1252:I 0.000541352
4 *1412:A2 *1279:A2 0.000337632
5 *1412:A2 *1409:B1 0.000209683
6 *1412:A2 *1412:B2 0.000153283
7 *1412:A2 *344:27 0.000158738
8 *1275:A1 *1412:A2 3.48902e-05
9 *99:14 *1412:A2 0.000476322
10 *99:16 *1412:A2 0.000100647
*RES
1 *1279:ZN *1412:A2 36.45 
*END

*D_NET *115 0.0018195
*CONN
*I *1288:A2 I *D gf180mcu_fd_sc_mcu7t5v0__aoi21_1
*I *1280:ZN O *D gf180mcu_fd_sc_mcu7t5v0__nand3_1
*CAP
1 *1288:A2 0.000457539
2 *1280:ZN 0.000457539
3 *1288:A2 *1259:I 0.000545949
4 *1288:A2 *1280:A1 0.000261587
5 *1288:A2 *1288:B 7.59818e-05
6 *1280:A2 *1288:A2 2.09032e-05
*RES
1 *1280:ZN *1288:A2 30.6 
*END

*D_NET *116 0.0172254
*CONN
*I *1283:A1 I *D gf180mcu_fd_sc_mcu7t5v0__nand2_1
*I *1384:A1 I *D gf180mcu_fd_sc_mcu7t5v0__oai21_1
*I *1380:A1 I *D gf180mcu_fd_sc_mcu7t5v0__nor2_1
*I *1281:ZN O *D gf180mcu_fd_sc_mcu7t5v0__nand4_1
*CAP
1 *1283:A1 0.00118001
2 *1384:A1 0.000503475
3 *1380:A1 0.000104822
4 *1281:ZN 0.000238924
5 *116:20 0.00181759
6 *1283:A1 *1274:A1 0.000129854
7 *1283:A1 *1283:A2 7.55765e-06
8 *1283:A1 *1375:A3 0.00258397
9 *1283:A1 *1601:I 8.76338e-05
10 *1283:A1 *225:8 0.000414473
11 *1283:A1 *225:14 1.36885e-05
12 *1283:A1 *296:116 0.000318199
13 *1380:A1 *1382:A1 8.43214e-05
14 *1380:A1 *288:32 0.000404867
15 *1384:A1 *414:I 4.71481e-05
16 *1384:A1 *1384:B 0.000299808
17 *1384:A1 *126:28 0.00154058
18 *1384:A1 *296:116 0.000154623
19 *116:20 *1281:A1 0.00014267
20 *116:20 *1382:A1 2.37076e-05
21 *116:20 *1465:RN 9.36603e-05
22 *116:20 *306:8 4.32041e-05
23 *1280:A3 *1380:A1 0.000653698
24 *1282:A2 *1283:A1 4.73175e-05
25 *1415:A1 *1283:A1 0.000132276
26 *1462:D *1283:A1 0.000637746
27 *1462:D *1384:A1 0.000209288
28 *1462:D *116:20 1.39839e-05
29 *1464:D *1283:A1 0.00517287
30 *1464:D *1384:A1 0.000123398
*RES
1 *1281:ZN *1380:A1 10.89 
2 *1281:ZN *116:20 10.17 
3 *116:20 *1384:A1 15.21 
4 *116:20 *1283:A1 26.91 
*END

*D_NET *117 0.00045023
*CONN
*I *1283:A2 I *D gf180mcu_fd_sc_mcu7t5v0__nand2_1
*I *1282:ZN O *D gf180mcu_fd_sc_mcu7t5v0__nand2_1
*CAP
1 *1283:A2 0.000200956
2 *1282:ZN 0.000200956
3 *1283:A2 *1251:I 0
4 *1282:A2 *1283:A2 8.54857e-06
5 *1283:A1 *1283:A2 7.55765e-06
6 *1415:A1 *1283:A2 3.22122e-05
*RES
1 *1282:ZN *1283:A2 10.26 
*END

*D_NET *118 0.0149301
*CONN
*I *1506:I I *D gf180mcu_fd_sc_mcu7t5v0__buf_2
*I *1343:A2 I *D gf180mcu_fd_sc_mcu7t5v0__nand2_1
*I *1284:ZN O *D gf180mcu_fd_sc_mcu7t5v0__nand2_1
*CAP
1 *1506:I 4.76283e-05
2 *1343:A2 0.00235572
3 *1284:ZN 0.000740836
4 *118:14 0.00314418
5 *1343:A2 *350:I 6.21246e-06
6 *1343:A2 *441:I 0.000825713
7 *1343:A2 *1340:B 3.06566e-05
8 *1343:A2 *1344:B 0.000367605
9 *1343:A2 *1365:B2 0
10 *1343:A2 *1444:CLK 0.00089522
11 *1343:A2 *172:22 0
12 *1343:A2 *208:11 1.19471e-05
13 *1343:A2 *229:72 0
14 *1343:A2 *229:83 0.00023712
15 *1343:A2 *229:94 0.00067746
16 *1343:A2 *248:65 9.7659e-06
17 *1343:A2 *248:71 0.000311128
18 *1343:A2 *248:89 3.2553e-06
19 *1343:A2 *272:63 0.000425985
20 *1343:A2 *272:78 0.000244934
21 *1343:A2 *276:14 7.13778e-06
22 *1343:A2 *276:192 3.45023e-05
23 *1343:A2 *327:53 0
24 *1506:I *159:41 0.00018504
25 *1506:I *208:11 7.01087e-05
26 *118:14 *1403:B 0.00027964
27 *118:14 *1405:A1 3.30162e-05
28 *118:14 *159:12 0.00015703
29 *118:14 *159:41 9.51606e-05
30 *118:14 *196:10 0.00102865
31 *118:14 *208:11 3.34748e-05
32 *118:14 *208:19 1.36825e-05
33 *118:14 *229:72 0
34 *118:14 *293:12 0.00082674
35 *118:14 *293:14 0.000363118
36 *118:14 *293:22 0.000789353
37 *1341:A3 *1343:A2 0
38 *1341:A3 *118:14 4.42173e-05
39 *1444:D *1343:A2 0.00036855
40 *96:14 *118:14 0.000265275
*RES
1 *1284:ZN *118:14 22.23 
2 *118:14 *1343:A2 39.51 
3 *118:14 *1506:I 5.13 
*END

*D_NET *119 0.000939387
*CONN
*I *1286:A2 I *D gf180mcu_fd_sc_mcu7t5v0__nand2_1
*I *1285:ZN O *D gf180mcu_fd_sc_mcu7t5v0__oai21_1
*CAP
1 *1286:A2 0.000288449
2 *1285:ZN 0.000288449
3 *1286:A2 *1253:I 8.65898e-05
4 *1286:A2 *1285:A1 8.49208e-05
5 *1286:A2 *1342:B 6.89668e-06
6 *1286:A2 *274:97 4.92231e-05
7 *1286:A2 *274:108 6.49017e-05
8 *113:6 *1286:A2 6.99576e-05
*RES
1 *1285:ZN *1286:A2 11.34 
*END

*D_NET *120 0.0424368
*CONN
*I *360:I I *D gf180mcu_fd_sc_mcu7t5v0__antenna
*I *1289:A1 I *D gf180mcu_fd_sc_mcu7t5v0__nand2_1
*I *359:I I *D gf180mcu_fd_sc_mcu7t5v0__antenna
*I *1400:A1 I *D gf180mcu_fd_sc_mcu7t5v0__oai32_4
*I *399:I I *D gf180mcu_fd_sc_mcu7t5v0__antenna
*I *1287:ZN O *D gf180mcu_fd_sc_mcu7t5v0__nand2_1
*CAP
1 *360:I 0.000406039
2 *1289:A1 0
3 *359:I 2.33469e-05
4 *1400:A1 0.00138452
5 *399:I 0.000365519
6 *1287:ZN 0
7 *120:81 0.00269852
8 *120:69 0.00708664
9 *120:18 0.00277791
10 *120:12 0.002812
11 *120:4 0.00655493
12 *359:I *1246:I 6.59012e-05
13 *359:I *1487:I 0.00016327
14 *360:I *354:I 6.79778e-05
15 *360:I *1250:I 1.68605e-05
16 *360:I *1274:A2 0.00042641
17 *360:I *227:31 0.000282171
18 *399:I *1291:A2 3.94271e-05
19 *399:I *1363:B 1.0415e-05
20 *399:I *1459:CLK 6.63099e-05
21 *399:I *209:6 0.000148353
22 *1400:A1 *1258:I 0.000285944
23 *1400:A1 *1264:I 4.71183e-05
24 *1400:A1 *1402:A3 0
25 *1400:A1 *1486:I 0.000587883
26 *1400:A1 *216:8 0.000392029
27 *1400:A1 *289:14 0.000252872
28 *1400:A1 *290:151 0.000353002
29 *1400:A1 *292:16 0.000767431
30 *1400:A1 *293:54 0.000486059
31 *1400:A1 *308:20 7.4601e-06
32 *120:12 *1367:A2 8.67249e-05
33 *120:12 *1454:RN 0.000609594
34 *120:12 *1578:I 0.000234284
35 *120:12 *1598:I 2.14322e-06
36 *120:12 *246:39 0.000915407
37 *120:12 *248:16 0.000148072
38 *120:12 *273:61 0.000364272
39 *120:12 *280:48 0
40 *120:12 *308:20 0.000265631
41 *120:18 *1578:I 4.42413e-05
42 *120:18 *246:39 0.000243393
43 *120:69 *363:I 0.000219444
44 *120:69 *376:I 3.83762e-05
45 *120:69 *1269:I 0.000225735
46 *120:69 *1284:A1 8.78959e-06
47 *120:69 *1287:A1 1.95007e-05
48 *120:69 *1294:A2 0.000374198
49 *120:69 *1367:A2 6.02724e-05
50 *120:69 *1373:A2 5.76097e-05
51 *120:69 *1374:A1 0.000531039
52 *120:69 *1374:B1 1.51171e-05
53 *120:69 *1379:A1 6.2083e-06
54 *120:69 *1383:A3 9.80446e-05
55 *120:69 *1404:B 0.000614666
56 *120:69 *1505:I 5.43496e-06
57 *120:69 *196:10 0.000856023
58 *120:69 *239:41 0.00140942
59 *120:69 *239:83 0.000150451
60 *120:69 *248:48 2.73022e-06
61 *120:69 *273:10 0
62 *120:69 *274:14 0.000209629
63 *120:69 *276:147 1.02656e-06
64 *120:69 *288:20 4.27041e-05
65 *120:69 *289:118 0
66 *120:69 *289:134 0.000281266
67 *120:81 *1274:A2 3.42509e-05
68 *120:81 *1554:I 0.000124081
69 *120:81 *121:24 0.000246422
70 dac_p[2] *120:18 0.00177523
71 *1273:A2 *120:69 0
72 *1282:A2 *120:81 0.000102998
73 *1287:A2 *120:69 0.000660821
74 *1336:A1 *120:69 7.96467e-05
75 *1427:D *1400:A1 4.7365e-05
76 *1445:D *1400:A1 0.000150744
77 *47:8 *399:I 0.000846452
78 *47:22 *120:18 0.000114031
79 *86:18 *120:12 0
80 *86:18 *120:69 8.28517e-05
81 *94:16 *1400:A1 0.000148506
82 *94:16 *120:18 0.000225943
83 *94:37 *1400:A1 0
84 *98:12 *360:I 0.000437679
85 *98:12 *120:81 9.6028e-05
86 *109:24 *1400:A1 0.000285992
87 *109:24 *120:18 0.000260026
*RES
1 *1287:ZN *120:4 4.5 
2 *120:4 *120:12 21.42 
3 *120:12 *120:18 13.32 
4 *120:18 *399:I 12.33 
5 *120:18 *1400:A1 21.51 
6 *120:12 *359:I 13.95 
7 *120:4 *120:69 47.9604 
8 *120:69 *120:81 18.6969 
9 *120:81 *1289:A1 9 
10 *120:81 *360:I 14.13 
*END

*D_NET *121 0.0137132
*CONN
*I *1289:A2 I *D gf180mcu_fd_sc_mcu7t5v0__nand2_1
*I *1288:ZN O *D gf180mcu_fd_sc_mcu7t5v0__aoi21_1
*CAP
1 *1289:A2 0
2 *1288:ZN 0.00221809
3 *121:24 0.00221809
4 *121:24 *377:I 0.0009382
5 *121:24 *415:I 3.21801e-05
6 *121:24 *448:I 0.000589929
7 *121:24 *1274:A2 0.000380617
8 *121:24 *1299:A2 0.000435219
9 *121:24 *1381:A2 0.000349769
10 *121:24 *1384:B 2.87447e-05
11 *121:24 *1457:SETN 2.21159e-05
12 *121:24 *1526:I 7.54295e-05
13 *121:24 *1528:I 3.04435e-05
14 *121:24 *1571:I 0.000101177
15 *121:24 *296:116 8.57589e-05
16 *121:24 *305:8 0
17 *121:24 *310:16 5.33353e-05
18 *1275:A1 *121:24 1.49862e-05
19 *1280:A2 *121:24 1.17652e-05
20 *1282:A2 *121:24 0.000139075
21 *1431:D *121:24 0.000139367
22 *1460:D *121:24 0.00439863
23 *98:12 *121:24 9.85224e-05
24 *99:12 *121:24 1.64523e-05
25 *99:16 *121:24 1.97681e-06
26 *100:16 *121:24 1.86887e-06
27 *100:58 *121:24 9.62268e-05
28 *100:64 *121:24 0.00069671
29 *111:8 *121:24 0.000228434
30 *111:28 *121:24 6.36173e-05
31 *120:81 *121:24 0.000246422
*RES
1 *1288:ZN *121:24 45.9 
2 *121:24 *1289:A2 4.5 
*END

*D_NET *122 0.0180809
*CONN
*I *1379:A2 I *D gf180mcu_fd_sc_mcu7t5v0__nor3_1
*I *1291:A2 I *D gf180mcu_fd_sc_mcu7t5v0__or2_1
*I *1290:ZN O *D gf180mcu_fd_sc_mcu7t5v0__nor2_1
*CAP
1 *1379:A2 0
2 *1291:A2 0.00166431
3 *1290:ZN 0.00130071
4 *122:20 0.00296502
5 *1291:A2 *1246:I 0.00218855
6 *1291:A2 *1291:A1 1.58537e-05
7 *1291:A2 *1310:B 0
8 *1291:A2 *1354:B 1.28431e-05
9 *1291:A2 *1357:A2 0.000106536
10 *1291:A2 *1360:A2 6.58315e-05
11 *1291:A2 *1361:A2 7.04255e-05
12 *1291:A2 *1363:B 6.57541e-06
13 *1291:A2 *1487:I 0.000106281
14 *1291:A2 *289:6 2.07522e-05
15 *1291:A2 *289:99 0.00024727
16 *1291:A2 *296:69 1.38782e-05
17 *122:20 *1290:A1 0.000103033
18 *122:20 *1357:A2 6.70264e-05
19 *122:20 *1366:A2 0.000212254
20 *122:20 *1369:A1 0.000582494
21 *122:20 *1369:B 9.3226e-06
22 *122:20 *1372:B 0.000336074
23 *122:20 *1374:A1 2.33065e-05
24 *122:20 *1379:A1 0.000955901
25 *122:20 *1503:I 0.000110565
26 *122:20 *1571:I 0.000158346
27 *122:20 *1598:I 0.0036758
28 *122:20 *206:43 0.000204114
29 *122:20 *248:48 0
30 *122:20 *280:52 0.000215362
31 *122:20 *296:34 0.000183534
32 *122:20 *296:46 0.000110918
33 *122:20 *342:30 0.000873082
34 dac_p[3] *1291:A2 1.23715e-05
35 dac_p[3] *122:20 0.000101602
36 *399:I *1291:A2 3.94271e-05
37 *1450:D *122:20 0.000850376
38 *1453:D *122:20 6.16184e-05
39 *1454:D *122:20 1.25858e-05
40 *1459:D *1291:A2 8.35768e-05
41 *47:8 *1291:A2 0.000313387
*RES
1 *1290:ZN *122:20 32.76 
2 *122:20 *1291:A2 26.91 
3 *122:20 *1379:A2 4.5 
*END

*D_NET *123 0.0176416
*CONN
*I *1297:A1 I *D gf180mcu_fd_sc_mcu7t5v0__nor2_1
*I *1414:A3 I *D gf180mcu_fd_sc_mcu7t5v0__or4_1
*I *1300:C I *D gf180mcu_fd_sc_mcu7t5v0__aoi211_2
*I *1298:A2 I *D gf180mcu_fd_sc_mcu7t5v0__or3_1
*I *1397:A1 I *D gf180mcu_fd_sc_mcu7t5v0__nor2_2
*I *1402:A1 I *D gf180mcu_fd_sc_mcu7t5v0__nor3_1
*I *1292:ZN O *D gf180mcu_fd_sc_mcu7t5v0__oai22_4
*CAP
1 *1297:A1 0.000838903
2 *1414:A3 2.57474e-05
3 *1300:C 0
4 *1298:A2 0
5 *1397:A1 0.000108902
6 *1402:A1 0.000110201
7 *1292:ZN 0.00101421
8 *123:65 0.0014171
9 *123:52 0.000664559
10 *123:45 0.000626307
11 *123:16 0.000719119
12 *1297:A1 *415:I 0
13 *1297:A1 *1252:I 0.000131393
14 *1297:A1 *1279:A2 0.000153265
15 *1297:A1 *1297:A2 0.000338502
16 *1297:A1 *1412:B1 0
17 *1297:A1 *1545:I 7.47548e-06
18 *1297:A1 *128:8 6.1299e-06
19 *1297:A1 *226:27 0.000122572
20 *1397:A1 *1366:A2 2.96824e-06
21 *1397:A1 *1404:A2 0.000703943
22 *1397:A1 *302:18 0.000766235
23 *1402:A1 *1404:A2 0.000720649
24 *1402:A1 *340:37 0.00091764
25 *1414:A3 *1375:A3 0.000290089
26 *1414:A3 *296:116 0.000290089
27 *123:16 *1292:B2 4.44209e-05
28 *123:16 *1376:A2 0.00111097
29 *123:16 *1407:B2 2.25507e-05
30 *123:16 *208:15 7.9857e-05
31 *123:16 *208:19 2.84412e-06
32 *123:16 *231:22 0.000622299
33 *123:16 *276:20 4.10339e-05
34 *123:16 *276:46 0.00037275
35 *123:16 *287:10 0
36 *123:16 *340:37 3.01487e-05
37 *123:16 *343:27 0.000352362
38 *123:45 *1248:I 2.956e-05
39 *123:45 *1349:A1 0
40 *123:45 *1407:C 0.000446874
41 *123:45 *1462:RN 5.39772e-05
42 *123:45 *1466:CLK 6.02001e-05
43 *123:45 *1550:I 0.000620062
44 *123:45 *302:10 0.000486059
45 *123:45 *343:12 0.000377395
46 *123:52 *1300:B 3.7795e-05
47 *123:52 *1466:CLK 2.16833e-05
48 *123:52 *198:26 2.91017e-05
49 *123:65 *415:I 0
50 *123:65 *1300:B 0.000159704
51 *123:65 *1415:A2 2.93938e-05
52 *123:65 *168:35 0
53 *123:65 *211:52 1.0415e-05
54 *123:65 *226:27 8.18337e-05
55 *1282:A2 *1297:A1 0.00010481
56 *1298:A1 *123:45 6.06389e-05
57 *1299:B *1297:A1 1.89044e-05
58 *1299:B *123:65 4.73522e-05
59 *1401:A2 *1402:A1 6.82028e-05
60 *1432:D *1297:A1 7.45446e-05
61 *1432:D *123:65 5.38121e-05
62 *1466:D *123:45 0.000483377
63 *1466:D *123:52 0.00047249
64 *1466:D *123:65 0.000470849
65 *96:12 *123:45 0.000687292
*RES
1 *1292:ZN *123:16 19.62 
2 *123:16 *1402:A1 7.11 
3 *123:16 *1397:A1 15.57 
4 *1292:ZN *123:45 11.97 
5 *123:45 *1298:A2 4.5 
6 *123:45 *123:52 1.35 
7 *123:52 *1300:C 4.5 
8 *123:52 *123:65 13.14 
9 *123:65 *1414:A3 14.31 
10 *123:65 *1297:A1 19.17 
*END

*D_NET *124 0.007979
*CONN
*I *1407:C I *D gf180mcu_fd_sc_mcu7t5v0__oai221_4
*I *1300:A2 I *D gf180mcu_fd_sc_mcu7t5v0__aoi211_2
*I *1296:A2 I *D gf180mcu_fd_sc_mcu7t5v0__nor3_2
*I *1293:Z O *D gf180mcu_fd_sc_mcu7t5v0__or3_1
*CAP
1 *1407:C 0.000541715
2 *1300:A2 0.000305333
3 *1296:A2 0.000914938
4 *1293:Z 0.000888715
5 *124:16 0.00156727
6 *1296:A2 *1273:A1 3.01487e-05
7 *1296:A2 *1296:A1 3.55118e-05
8 *1296:A2 *1296:A3 0.000102849
9 *1296:A2 *1375:A2 6.08177e-05
10 *1296:A2 *1412:A1 2.75149e-05
11 *1296:A2 *1412:B1 1.0415e-05
12 *1296:A2 *1413:B2 7.41813e-06
13 *1296:A2 *231:16 0.000324033
14 *1300:A2 *1412:B2 0.000428111
15 *1300:A2 *1413:B2 6.73549e-05
16 *1300:A2 *127:12 6.89781e-06
17 *1300:A2 *208:457 9.50367e-05
18 *1300:A2 *344:27 4.31718e-05
19 *1407:C *350:I 0.000125111
20 *1407:C *1278:A1 1.13734e-05
21 *1407:C *1466:CLK 1.0415e-05
22 *1407:C *1601:I 0
23 *1407:C *198:26 0.000202332
24 *1407:C *248:65 0.000127133
25 *1407:C *343:12 0.000143478
26 *124:16 *376:I 8.56918e-05
27 *124:16 *380:I 3.6176e-06
28 *124:16 *414:I 5.04358e-06
29 *124:16 *1412:B2 9.11874e-05
30 *124:16 *1465:RN 0.000154163
31 *124:16 *208:399 9.9513e-05
32 *124:16 *208:401 5.46105e-05
33 *124:16 *208:457 5.53183e-05
34 *124:16 *231:10 0.000225644
35 *124:16 *239:97 0.000465314
36 *124:16 *288:20 1.88856e-05
37 *1278:A2 *1296:A2 9.62694e-06
38 *1278:A2 *1407:C 9.19699e-05
39 *1300:A1 *1300:A2 3.58729e-05
40 *44:10 *1407:C 3.11982e-05
41 *113:16 *1407:C 2.73771e-05
42 *123:45 *1407:C 0.000446874
*RES
1 *1293:Z *124:16 23.49 
2 *124:16 *1296:A2 11.97 
3 *124:16 *1300:A2 11.34 
4 *1296:A2 *1407:C 23.04 
*END

*D_NET *125 0.012752
*CONN
*I *1402:A2 I *D gf180mcu_fd_sc_mcu7t5v0__nor3_1
*I *1397:A2 I *D gf180mcu_fd_sc_mcu7t5v0__nor2_2
*I *1383:A3 I *D gf180mcu_fd_sc_mcu7t5v0__nand3_1
*I *1294:ZN O *D gf180mcu_fd_sc_mcu7t5v0__nor2_2
*CAP
1 *1402:A2 0.000348266
2 *1397:A2 0.000641297
3 *1383:A3 0.00161598
4 *1294:ZN 0.00190901
5 *1383:A3 *414:I 5.54359e-05
6 *1383:A3 *1294:A2 0.000320271
7 *1383:A3 *1377:A3 4.26126e-05
8 *1383:A3 *1460:CLK 0.000405532
9 *1383:A3 *1461:CLK 0.000182865
10 *1383:A3 *1542:I 2.1573e-06
11 *1383:A3 *1548:I 0.000543015
12 *1383:A3 *126:10 0.000923822
13 *1383:A3 *126:28 0.000558999
14 *1383:A3 *210:6 2.36914e-05
15 *1383:A3 *279:10 3.94423e-05
16 *1383:A3 *287:33 4.30294e-05
17 *1383:A3 *289:118 0
18 *1397:A2 *1284:A1 0.000172555
19 *1397:A2 *1294:A1 0.000172555
20 *1397:A2 *208:19 0
21 *1397:A2 *274:14 0.000175001
22 *1402:A2 *1428:CLK 9.67415e-05
23 *1402:A2 *192:8 5.25883e-05
24 *1402:A2 *206:14 0.000647941
25 *1402:A2 *208:19 0.000181279
26 *1402:A2 *218:41 9.04462e-05
27 *1402:A2 *293:54 0.000402423
28 *1402:A2 *340:37 0.000402423
29 *1280:A3 *1383:A3 0.000104488
30 *1377:A1 *1383:A3 0.000478014
31 *1383:A1 *1383:A3 0.000325226
32 *1464:D *1383:A3 0.000150744
33 *104:12 *1383:A3 8.21472e-05
34 *108:14 *1402:A2 0.000641425
35 *110:14 *1397:A2 0.000809494
36 *110:14 *1402:A2 0
37 *111:28 *1383:A3 1.30063e-05
38 *120:69 *1383:A3 9.80446e-05
*RES
1 *1294:ZN *1383:A3 34.56 
2 *1294:ZN *1397:A2 12.24 
3 *1397:A2 *1402:A2 22.86 
*END

*D_NET *126 0.0135127
*CONN
*I *1296:A3 I *D gf180mcu_fd_sc_mcu7t5v0__nor3_2
*I *1380:A2 I *D gf180mcu_fd_sc_mcu7t5v0__nor2_1
*I *1384:A2 I *D gf180mcu_fd_sc_mcu7t5v0__oai21_1
*I *1381:A3 I *D gf180mcu_fd_sc_mcu7t5v0__nor3_1
*I *1295:Z O *D gf180mcu_fd_sc_mcu7t5v0__or2_1
*CAP
1 *1296:A3 0.00082634
2 *1380:A2 0
3 *1384:A2 0
4 *1381:A3 0.000119176
5 *1295:Z 0.000749075
6 *126:28 0.000990521
7 *126:14 0.000986385
8 *126:10 0.00169046
9 *1296:A3 *1255:I 0.000342123
10 *1296:A3 *1296:A1 9.85004e-05
11 *1296:A3 *1516:I 0.000101624
12 *1296:A3 *1601:I 5.8927e-05
13 *1296:A3 *231:10 0
14 *1296:A3 *239:47 0.000110105
15 *1296:A3 *239:97 0
16 *1381:A3 *1396:A2 8.32884e-05
17 *126:14 *1465:RN 2.78564e-05
18 *126:14 *1542:I 0.000498948
19 *126:28 *414:I 1.09332e-05
20 *126:28 *1396:A2 0.000239113
21 *126:28 *239:97 4.59827e-06
22 *126:28 *296:116 3.08806e-06
23 *1278:A2 *1296:A3 2.54987e-05
24 *1280:A3 *126:28 0.000407727
25 *1296:A2 *1296:A3 0.000102849
26 *1383:A1 *126:10 0.00124284
27 *1383:A3 *126:10 0.000923822
28 *1383:A3 *126:28 0.000558999
29 *1384:A1 *126:28 0.00154058
30 *1458:D *1381:A3 0.000639738
31 *1458:D *126:28 3.42509e-05
32 *1461:D *126:10 5.46383e-05
33 *1464:D *126:28 0.000229402
34 *44:10 *1296:A3 0.000195447
35 *44:10 *126:10 0.000122626
36 *104:12 *126:10 0.000433894
37 *111:28 *126:28 5.9323e-05
*RES
1 *1295:Z *126:10 17.64 
2 *126:10 *126:14 5.85 
3 *126:14 *126:28 23.4 
4 *126:28 *1381:A3 10.71 
5 *126:28 *1384:A2 9 
6 *126:14 *1380:A2 4.5 
7 *126:10 *1296:A3 15.3 
*END

*D_NET *127 0.0071023
*CONN
*I *1545:I I *D gf180mcu_fd_sc_mcu7t5v0__clkbuf_1
*I *1297:A2 I *D gf180mcu_fd_sc_mcu7t5v0__nor2_1
*I *1296:ZN O *D gf180mcu_fd_sc_mcu7t5v0__nor3_2
*CAP
1 *1545:I 9.60886e-05
2 *1297:A2 0.000103826
3 *1296:ZN 0.00113425
4 *127:12 0.00133416
5 *1297:A2 *1252:I 3.02991e-05
6 *1545:I *271:8 5.20752e-05
7 *127:12 *415:I 9.93243e-05
8 *127:12 *1300:B 0.000113828
9 *127:12 *1413:A2 0.000337082
10 *127:12 *1413:B2 3.44608e-05
11 *127:12 *128:8 0.000326454
12 *127:12 *198:26 0.00182618
13 *127:12 *208:457 6.08177e-05
14 *127:12 *271:8 0.00030928
15 *1278:A2 *127:12 0
16 *1282:A2 *1297:A2 0.000475943
17 *1297:A1 *1297:A2 0.000338502
18 *1297:A1 *1545:I 7.47548e-06
19 *1300:A1 *127:12 0.000205912
20 *1300:A2 *127:12 6.89781e-06
21 *1414:A2 *127:12 0.000148813
22 *44:10 *127:12 0
23 *113:16 *127:12 6.06389e-05
*RES
1 *1296:ZN *127:12 15.48 
2 *127:12 *1297:A2 14.85 
3 *127:12 *1545:I 5.22 
*END

*D_NET *128 0.00148112
*CONN
*I *1409:A2 I *D gf180mcu_fd_sc_mcu7t5v0__oai22_1
*I *1413:A2 I *D gf180mcu_fd_sc_mcu7t5v0__oai22_1
*I *1297:ZN O *D gf180mcu_fd_sc_mcu7t5v0__nor2_1
*CAP
1 *1409:A2 0
2 *1413:A2 0.000183707
3 *1297:ZN 0.000209492
4 *128:8 0.000393199
5 *1413:A2 *1409:B2 1.46357e-05
6 *1297:A1 *128:8 6.1299e-06
7 *1414:A2 *1413:A2 1.0415e-05
8 *127:12 *1413:A2 0.000337082
9 *127:12 *128:8 0.000326454
*RES
1 *1297:ZN *128:8 6.12 
2 *128:8 *1413:A2 6.03 
3 *128:8 *1409:A2 4.5 
*END

*D_NET *129 0.00239015
*CONN
*I *1301:A2 I *D gf180mcu_fd_sc_mcu7t5v0__aoi22_1
*I *1298:Z O *D gf180mcu_fd_sc_mcu7t5v0__or3_1
*CAP
1 *1301:A2 0.000393882
2 *1298:Z 0.000393882
3 *1301:A2 *1301:B1 1.34934e-05
4 *1301:A2 *1301:B2 2.08043e-05
5 *1301:A2 *1349:A1 1.23806e-05
6 *1301:A2 *1415:B 0.000351343
7 *1301:A2 *1466:CLK 0.000129287
8 *1301:A2 *168:10 1.46628e-05
9 *1301:A2 *272:125 9.63432e-05
10 *1301:A2 *310:16 0.00021875
11 *1301:A2 *344:27 0.000423819
12 *1433:D *1301:A2 0.000314134
13 *1434:D *1301:A2 7.37195e-06
*RES
1 *1298:Z *1301:A2 22.14 
*END

*D_NET *130 0.00752109
*CONN
*I *1301:B1 I *D gf180mcu_fd_sc_mcu7t5v0__aoi22_1
*I *1299:ZN O *D gf180mcu_fd_sc_mcu7t5v0__oai21_1
*CAP
1 *1301:B1 0.00114755
2 *1299:ZN 0.00114755
3 *1301:B1 *377:I 0.000129084
4 *1301:B1 *378:I 0.000283122
5 *1301:B1 *1274:A1 0.000126583
6 *1301:B1 *1415:B 3.17755e-06
7 *1301:B1 *1433:CLK 0.000831575
8 *1301:B1 *214:41 0.000162093
9 *443:I *1301:B1 0.00174333
10 *1299:B *1301:B1 0.000169185
11 *1301:A2 *1301:B1 1.34934e-05
12 *1434:D *1301:B1 2.10223e-05
13 *98:12 *1301:B1 0.00174334
*RES
1 *1299:ZN *1301:B1 31.59 
*END

*D_NET *131 0.00335526
*CONN
*I *1415:B I *D gf180mcu_fd_sc_mcu7t5v0__aoi21_1
*I *1301:B2 I *D gf180mcu_fd_sc_mcu7t5v0__aoi22_1
*I *1300:ZN O *D gf180mcu_fd_sc_mcu7t5v0__aoi211_2
*CAP
1 *1415:B 0.000295775
2 *1301:B2 8.33932e-05
3 *1300:ZN 0.000264486
4 *131:12 0.000643654
5 *1301:B2 *378:I 3.78027e-05
6 *1301:B2 *272:117 8.4183e-06
7 *1415:B *1349:A1 5.03807e-05
8 *1415:B *1349:A2 0.000117271
9 *1415:B *1415:A2 1.84368e-05
10 *1415:B *272:117 7.191e-07
11 *131:12 *1346:A1 0.000135937
12 *131:12 *1349:A2 0.000333525
13 *131:12 *1415:A2 0.000660835
14 *131:12 *272:117 6.12687e-06
15 *131:12 *344:27 0.000237128
16 *1301:A2 *1301:B2 2.08043e-05
17 *1301:A2 *1415:B 0.000351343
18 *1301:B1 *1415:B 3.17755e-06
19 *1433:D *1415:B 8.60472e-05
*RES
1 *1300:ZN *131:12 16.74 
2 *131:12 *1301:B2 5.13 
3 *131:12 *1415:B 7.11 
*END

*D_NET *132 0.0103471
*CONN
*I *1359:A1 I *D gf180mcu_fd_sc_mcu7t5v0__aoi211_2
*I *1322:A1 I *D gf180mcu_fd_sc_mcu7t5v0__aoi21_1
*I *1347:A2 I *D gf180mcu_fd_sc_mcu7t5v0__aoi211_2
*I *1303:A2 I *D gf180mcu_fd_sc_mcu7t5v0__aoi21_1
*I *1302:Z O *D gf180mcu_fd_sc_mcu7t5v0__and2_1
*CAP
1 *1359:A1 0.000195521
2 *1322:A1 0
3 *1347:A2 0.000277551
4 *1303:A2 0.000184696
5 *1302:Z 0.00014165
6 *132:16 0.00101238
7 *132:14 0.000608074
8 *132:12 0.000395114
9 *1303:A2 *1303:A1 1.60909e-05
10 *1303:A2 *1306:A1 0.000130479
11 *1303:A2 *1417:CLK 3.01487e-05
12 *1303:A2 *1495:I 5.39731e-05
13 *1347:A2 *1310:B 0.000434233
14 *1347:A2 *1591:I 0.00142733
15 *1347:A2 *261:8 0.00048926
16 *1347:A2 *285:51 0.000968642
17 *1359:A1 *1317:A2 0.000158788
18 *1359:A1 *1322:A2 1.81014e-05
19 *1359:A1 *1360:A2 0.000119368
20 *1359:A1 *1437:RN 0.00067923
21 *132:12 *1318:A1 6.8611e-05
22 *132:12 *1324:A2 4.34597e-05
23 *132:12 *1360:A2 0.000180283
24 *132:12 *143:14 6.71551e-05
25 *132:12 *143:31 5.68787e-05
26 *132:12 *328:60 0.000147441
27 *132:12 *333:22 7.18388e-06
28 *132:14 *1322:A2 4.41833e-05
29 *132:14 *1437:RN 7.07499e-05
30 *132:16 *1313:B 0.000218416
31 *132:16 *1322:A2 4.6613e-06
32 *132:16 *1417:CLK 0.000923189
33 *132:16 *1437:RN 0.000218608
34 *132:16 *143:14 0.00011155
35 *132:16 *220:6 0.000844109
*RES
1 *1302:Z *132:12 15.3 
2 *132:12 *132:14 0.63 
3 *132:14 *132:16 6.39 
4 *132:16 *1303:A2 5.85 
5 *132:16 *1347:A2 18.63 
6 *132:14 *1322:A1 4.5 
7 *132:12 *1359:A1 6.93 
*END

*D_NET *133 0.00629248
*CONN
*I *1306:A1 I *D gf180mcu_fd_sc_mcu7t5v0__oai21_1
*I *1303:ZN O *D gf180mcu_fd_sc_mcu7t5v0__aoi21_1
*CAP
1 *1306:A1 0.000504822
2 *1303:ZN 0.000504822
3 *1306:A1 *353:I 0.000547547
4 *1306:A1 *404:I 2.84369e-05
5 *1306:A1 *1303:A1 9.04462e-05
6 *1306:A1 *1303:B 8.50218e-05
7 *1306:A1 *1386:S 1.86249e-05
8 *1306:A1 *1416:CLK 0.000298434
9 *1306:A1 *1417:CLK 0.000923189
10 *1306:A1 *1436:RN 0.000417707
11 *1306:A1 *220:6 9.85004e-05
12 *1306:A1 *220:17 0.00107151
13 *1306:A1 *241:62 4.34691e-05
14 *1306:A1 *241:88 0.000291536
15 *1306:A1 *269:65 2.08301e-05
16 *1303:A2 *1306:A1 0.000130479
17 *1417:D *1306:A1 0.000344002
18 *1435:D *1306:A1 0.000873098
*RES
1 *1303:ZN *1306:A1 26.91 
*END

*D_NET *134 0.0180461
*CONN
*I *1306:B I *D gf180mcu_fd_sc_mcu7t5v0__oai21_1
*I *1304:ZN O *D gf180mcu_fd_sc_mcu7t5v0__nand2_1
*CAP
1 *1306:B 0
2 *1304:ZN 0.0082537
3 *134:26 0.0082537
4 *134:26 *404:I 0.000164916
5 *134:26 *1314:A1 6.85726e-05
6 *134:26 *1426:CLK 2.84401e-06
7 *134:26 *1598:I 1.254e-05
8 *134:26 *187:22 0.00107909
9 *134:26 *289:14 0.000119568
10 *134:26 *332:40 9.12013e-05
*RES
1 *1304:ZN *134:26 48.5616 
2 *134:26 *1306:B 4.5 
*END

*D_NET *135 0.0158054
*CONN
*I *1502:I I *D gf180mcu_fd_sc_mcu7t5v0__dlyb_1
*I *1501:I I *D gf180mcu_fd_sc_mcu7t5v0__dlyb_1
*I *1305:ZN O *D gf180mcu_fd_sc_mcu7t5v0__oai21_1
*CAP
1 *1502:I 0.000711709
2 *1501:I 0.00242231
3 *1305:ZN 0
4 *135:4 0.00313402
5 *1501:I *348:I 6.96766e-06
6 *1501:I *1305:A1 0.000176246
7 *1501:I *1360:A2 0.00130537
8 *1501:I *1372:A2 0.000116183
9 *1501:I *1374:B2 2.21888e-06
10 *1501:I *1470:I 3.58729e-05
11 *1501:I *1549:I 9.3226e-06
12 *1501:I *166:24 0.000873204
13 *1501:I *168:26 0.00206204
14 *1501:I *244:39 1.0415e-05
15 *1501:I *301:10 0.000438928
16 *1502:I *412:I 0.000145379
17 *1502:I *429:I 1.37912e-05
18 *1502:I *1305:A2 9.5155e-05
19 *1502:I *1305:B 1.25151e-05
20 *1502:I *1331:A1 3.93525e-05
21 *1502:I *1338:A2 0.000542422
22 *1502:I *1344:A2 0.000220955
23 *1502:I *1349:A1 4.34467e-06
24 *1502:I *1372:A2 6.22044e-06
25 *1502:I *1374:B2 0.00133336
26 *1502:I *274:155 2.87139e-05
27 *1502:I *312:14 4.4441e-06
28 *1444:D *1502:I 0.000161479
29 *109:24 *1501:I 0.00189242
*RES
1 *1305:ZN *135:4 4.5 
2 *135:4 *1501:I 46.8 
3 *135:4 *1502:I 20.43 
*END

*D_NET *136 0.00924706
*CONN
*I *1350:A2 I *D gf180mcu_fd_sc_mcu7t5v0__aoi211_1
*I *1308:A2 I *D gf180mcu_fd_sc_mcu7t5v0__aoi21_1
*I *1347:B I *D gf180mcu_fd_sc_mcu7t5v0__aoi211_2
*I *1307:Z O *D gf180mcu_fd_sc_mcu7t5v0__and3_1
*CAP
1 *1350:A2 0.000184168
2 *1308:A2 0.000210857
3 *1347:B 0.00129624
4 *1307:Z 0.000977182
5 *136:32 0.00071408
6 *1308:A2 *1308:A1 1.15771e-05
7 *1308:A2 *1351:A2 7.08402e-05
8 *1308:A2 *269:29 0
9 *1347:B *1347:A1 1.55102e-05
10 *1347:B *1347:C 2.50865e-05
11 *1347:B *1353:A1 0.00116981
12 *1347:B *1353:C 2.86134e-05
13 *1347:B *1354:A2 0.000223398
14 *1347:B *1354:B 4.50976e-05
15 *1347:B *1537:I 4.13359e-06
16 *1347:B *219:10 0.00131245
17 *1347:B *277:63 0
18 *1347:B *289:14 0.000117845
19 *1350:A2 *1308:A1 1.60989e-05
20 *1350:A2 *1351:A2 0.000465534
21 *136:32 *1310:B 0.000446636
22 *136:32 *1347:C 4.6613e-06
23 *136:32 *1351:A2 2.70026e-05
24 *136:32 *1494:I 5.20752e-05
25 *136:32 *261:8 0.000282504
26 *136:32 *276:91 0.000229829
27 *1307:A2 *1347:B 0.00131584
28 *1398:S *1350:A2 0
*RES
1 *1307:Z *1347:B 28.17 
2 *1347:B *136:32 17.46 
3 *136:32 *1308:A2 5.76 
4 *136:32 *1350:A2 6.03 
*END

*D_NET *137 0.00449545
*CONN
*I *1310:A2 I *D gf180mcu_fd_sc_mcu7t5v0__oai21_1
*I *1308:ZN O *D gf180mcu_fd_sc_mcu7t5v0__aoi21_1
*CAP
1 *1310:A2 0.000574627
2 *1308:ZN 0.000574627
3 *1310:A2 *410:I 1.37426e-05
4 *1310:A2 *1310:A1 0.000242426
5 *1310:A2 *1378:A2 0.000676974
6 *1310:A2 *1395:A2 0.000285641
7 *1310:A2 *263:10 0.000272782
8 *1310:A2 *264:8 0.000394591
9 *1310:A2 *269:10 2.60586e-05
10 *1310:A2 *269:44 0.000649986
11 *1310:A2 *276:91 0.000236857
12 *1310:A2 *285:57 6.97586e-07
13 *1436:D *1310:A2 0.000327331
14 *1445:D *1310:A2 0.000219114
*RES
1 *1308:ZN *1310:A2 34.74 
*END

*D_NET *138 0.00985249
*CONN
*I *1310:B I *D gf180mcu_fd_sc_mcu7t5v0__oai21_1
*I *1309:ZN O *D gf180mcu_fd_sc_mcu7t5v0__nand2_1
*CAP
1 *1310:B 0.000752431
2 *1309:ZN 0.000752431
3 *1310:B *1291:A1 1.30613e-05
4 *1310:B *1310:A1 9.11647e-05
5 *1310:B *1348:A2 0.00403978
6 *1310:B *1351:A2 7.8834e-05
7 *1310:B *1426:RN 3.32853e-05
8 *1310:B *261:8 0.0010243
9 *1310:B *263:10 3.31835e-05
10 *1310:B *269:29 0.000253938
11 *1310:B *285:51 0.00084859
12 *1291:A2 *1310:B 0
13 *1347:A2 *1310:B 0.000434233
14 *1436:D *1310:B 6.53017e-06
15 *1445:D *1310:B 0.0010441
16 *136:32 *1310:B 0.000446636
*RES
1 *1309:ZN *1310:B 33.12 
*END

*D_NET *139 0.00500184
*CONN
*I *1400:A2 I *D gf180mcu_fd_sc_mcu7t5v0__oai32_4
*I *1373:A1 I *D gf180mcu_fd_sc_mcu7t5v0__aoi21_1
*I *1311:ZN O *D gf180mcu_fd_sc_mcu7t5v0__nor2_2
*CAP
1 *1400:A2 0.000619185
2 *1373:A1 0.000174465
3 *1311:ZN 0.00079365
4 *1373:A1 *1361:A2 7.04118e-05
5 *1373:A1 *1549:I 0.000561388
6 *1373:A1 *289:99 0.00018576
7 *1373:A1 *302:27 0.000248193
8 *1400:A2 *1270:A2 6.03252e-05
9 *1400:A2 *1572:I 0.000137649
10 *1400:A2 *230:41 3.27893e-05
11 *1400:A2 *290:151 2.48332e-05
12 *1400:A2 *291:79 0.000185473
13 *1400:A2 *340:37 0.000188643
14 *1311:A2 *1400:A2 0.000422663
15 *1400:B2 *1400:A2 0.00107921
16 *1428:D *1400:A2 0.000217198
*RES
1 *1311:ZN *1373:A1 11.52 
2 *1311:ZN *1400:A2 24.57 
*END

*D_NET *140 0.0123337
*CONN
*I *1353:A2 I *D gf180mcu_fd_sc_mcu7t5v0__aoi221_2
*I *1313:A2 I *D gf180mcu_fd_sc_mcu7t5v0__aoi21_1
*I *1350:B I *D gf180mcu_fd_sc_mcu7t5v0__aoi211_1
*I *1312:Z O *D gf180mcu_fd_sc_mcu7t5v0__and3_1
*CAP
1 *1353:A2 0
2 *1313:A2 0.00108683
3 *1350:B 0.000734823
4 *1312:Z 0.000178047
5 *140:25 0.00108683
6 *140:12 0.00091287
7 *1313:A2 *404:I 0.000149965
8 *1313:A2 *1316:A1 0.000914064
9 *1313:A2 *1327:A1 0.000171278
10 *1313:A2 *1328:B 9.09974e-05
11 *1313:A2 *1353:C 0.00120587
12 *1313:A2 *1480:I 1.50471e-05
13 *1313:A2 *229:51 0.000787085
14 *1313:A2 *292:8 0
15 *1313:A2 *292:78 0.000247393
16 *1313:A2 *330:8 0.000461166
17 *1350:B *1354:B 1.9283e-05
18 *1350:B *1445:RN 0.000250101
19 *1350:B *1446:RN 0.000153801
20 *1350:B *1467:RN 2.59527e-05
21 *1350:B *1519:I 0.000846526
22 *1350:B *1520:I 4.56848e-05
23 *1350:B *168:26 0.00042963
24 *1350:B *204:8 0.000403005
25 *1350:B *240:23 0
26 *1350:B *312:29 5.23195e-05
27 *1350:B *328:16 0.000152309
28 *140:12 *1353:B1 9.6749e-05
29 *140:12 *1360:A2 7.28672e-05
30 *140:12 *1520:I 0.000164219
31 *140:12 *170:26 0.000353826
32 *140:12 *243:67 0.000100966
33 *1307:A2 *1350:B 0.000404806
34 *1307:A2 *140:12 0.000560761
35 *95:8 *1350:B 0.000158632
*RES
1 *1312:Z *140:12 11.97 
2 *140:12 *1350:B 16.92 
3 *140:12 *140:25 4.5 
4 *140:25 *1313:A2 24.39 
5 *140:25 *1353:A2 4.5 
*END

*D_NET *141 0.00242512
*CONN
*I *1315:A2 I *D gf180mcu_fd_sc_mcu7t5v0__oai21_1
*I *1313:ZN O *D gf180mcu_fd_sc_mcu7t5v0__aoi21_1
*CAP
1 *1315:A2 0.000231414
2 *1313:ZN 0.000231414
3 *1315:A2 *1303:A1 2.9172e-05
4 *1315:A2 *1315:B 0.000790163
5 *1315:A2 *1327:A1 0.000396255
6 *1315:A2 *1327:A2 7.47548e-06
7 *1315:A2 *1328:B 2.46306e-05
8 *1315:A2 *269:65 0.000714596
*RES
1 *1313:ZN *1315:A2 21.42 
*END

*D_NET *142 0.00952954
*CONN
*I *1315:B I *D gf180mcu_fd_sc_mcu7t5v0__oai21_1
*I *1314:ZN O *D gf180mcu_fd_sc_mcu7t5v0__nand2_1
*CAP
1 *1315:B 0.00050118
2 *1314:ZN 0.00050118
3 *1315:B *1303:A1 1.50774e-05
4 *1315:B *1591:I 4.0497e-05
5 *1315:B *269:44 0.000174497
6 *1315:B *269:65 0.000922907
7 *1315:B *276:91 0.000618805
8 *1315:B *276:114 0.00440969
9 *1315:B *289:25 0.000674413
10 *1315:B *289:38 0.000698715
11 dout_valid *1315:B 5.67029e-05
12 *1315:A2 *1315:B 0.000790163
13 *7:26 *1315:B 0.000125714
*RES
1 *1314:ZN *1315:B 31.32 
*END

*D_NET *143 0.0140984
*CONN
*I *1365:A1 I *D gf180mcu_fd_sc_mcu7t5v0__aoi221_2
*I *1317:A2 I *D gf180mcu_fd_sc_mcu7t5v0__and2_1
*I *1353:B1 I *D gf180mcu_fd_sc_mcu7t5v0__aoi221_2
*I *1316:Z O *D gf180mcu_fd_sc_mcu7t5v0__and2_1
*CAP
1 *1365:A1 0.00058162
2 *1317:A2 0.00011167
3 *1353:B1 0.000325294
4 *1316:Z 0.000429158
5 *143:31 0.000913863
6 *143:14 0.000975024
7 *1317:A2 *392:I 0.000553562
8 *1317:A2 *1302:A1 3.60134e-05
9 *1317:A2 *1356:C 1.86286e-05
10 *1317:A2 *1360:A2 0.000158788
11 *1317:A2 *333:22 0.000582577
12 *1353:B1 *1318:A1 0.000109323
13 *1353:B1 *1360:A2 0.000188742
14 *1353:B1 *243:67 9.83261e-05
15 *1353:B1 *277:18 0.000402095
16 *1353:B1 *277:27 0.000618826
17 *1365:A1 *392:I 0.000116893
18 *1365:A1 *1322:A2 0
19 *1365:A1 *1326:A1 0.000854754
20 *1365:A1 *1330:A2 0.000616462
21 *1365:A1 *1332:B 4.06159e-05
22 *1365:A1 *1390:I1 0.000155361
23 *1365:A1 *144:52 0.000239775
24 *1365:A1 *267:18 3.45705e-05
25 *1365:A1 *290:34 0.000115036
26 *1365:A1 *335:49 1.23715e-05
27 *143:14 *1313:B 0.000236234
28 *143:14 *1318:A1 0.000273542
29 *143:14 *1322:A2 3.12451e-05
30 *143:14 *1360:A2 2.75959e-05
31 *143:14 *1435:RN 0.000499457
32 *143:14 *328:60 0.0012681
33 *143:31 *1322:A2 1.20074e-05
34 *143:31 *1327:A1 4.32566e-05
35 *143:31 *328:60 3.92143e-05
36 *1302:A2 *1365:A1 0.000339278
37 *1302:A2 *143:31 7.98227e-05
38 *1307:A2 *1353:B1 8.16511e-05
39 *1359:A1 *1317:A2 0.000158788
40 *108:43 *1365:A1 0.0023865
41 *132:12 *143:14 6.71551e-05
42 *132:12 *143:31 5.68787e-05
43 *132:16 *143:14 0.00011155
44 *140:12 *1353:B1 9.6749e-05
*RES
1 *1316:Z *143:14 15.12 
2 *143:14 *1353:B1 12.78 
3 *143:14 *143:31 6.3 
4 *143:31 *1317:A2 15.84 
5 *143:31 *1365:A1 14.31 
*END

*D_NET *144 0.0142365
*CONN
*I *1333:A1 I *D gf180mcu_fd_sc_mcu7t5v0__aoi21_1
*I *1368:A1 I *D gf180mcu_fd_sc_mcu7t5v0__aoi211_2
*I *1356:A2 I *D gf180mcu_fd_sc_mcu7t5v0__aoi221_2
*I *1318:A2 I *D gf180mcu_fd_sc_mcu7t5v0__aoi21_1
*I *1317:Z O *D gf180mcu_fd_sc_mcu7t5v0__and2_1
*CAP
1 *1333:A1 0.000147399
2 *1368:A1 0.000309582
3 *1356:A2 0.000215127
4 *1318:A2 0.000216508
5 *1317:Z 0
6 *144:52 0.00189822
7 *144:25 0.00194026
8 *144:4 0.000500406
9 *1318:A2 *1318:B 9.34436e-06
10 *1318:A2 *1322:B 0.000295066
11 *1318:A2 *1324:A2 0.000279601
12 *1318:A2 *1437:RN 0.000496101
13 *1318:A2 *333:22 2.36152e-06
14 *1333:A1 *1332:B 6.57178e-05
15 *1333:A1 *1335:A2 0.000317144
16 *1333:A1 *1368:C 1.39504e-05
17 *1333:A1 *270:37 0.00035029
18 *1333:A1 *276:192 4.04088e-05
19 *1356:A2 *1356:C 0.000341261
20 *1356:A2 *1360:A2 0
21 *1356:A2 *268:31 0.000334975
22 *1356:A2 *272:59 0.000375337
23 *1368:A1 *1332:B 0.000237004
24 *1368:A1 *1368:A2 3.07932e-05
25 *1368:A1 *1369:A2 1.86887e-06
26 *1368:A1 *266:20 7.191e-07
27 *1368:A1 *276:192 0.000112064
28 *1368:A1 *327:20 0.000155452
29 *1368:A1 *327:36 2.23795e-05
30 *144:25 *392:I 0.000128676
31 *144:25 *1356:C 0.000303485
32 *144:25 *1437:RN 0.000242887
33 *144:25 *267:18 0.000146277
34 *144:25 *268:31 0.000660384
35 *144:52 *1326:B 6.65706e-05
36 *144:52 *1327:A1 0.000461166
37 *144:52 *1328:B 0.000160551
38 *144:52 *1332:B 0.000644885
39 *144:52 *1365:A2 3.58674e-05
40 *144:52 *147:22 0
41 *144:52 *268:25 5.8657e-05
42 *144:52 *327:8 1.80933e-05
43 *144:52 *327:36 8.12856e-06
44 *144:52 *336:31 3.73774e-06
45 *1365:A1 *144:52 0.000239775
46 *1438:D *1318:A2 0.000173092
47 *1438:D *144:25 0.000281088
48 *108:43 *144:52 0.00189388
*RES
1 *1317:Z *144:4 4.5 
2 *144:4 *1318:A2 16.11 
3 *144:4 *144:25 8.28 
4 *144:25 *1356:A2 11.25 
5 *144:25 *144:52 22.05 
6 *144:52 *1368:A1 11.52 
7 *144:52 *1333:A1 10.8 
*END

*D_NET *145 0.000979242
*CONN
*I *1320:A2 I *D gf180mcu_fd_sc_mcu7t5v0__oai21_1
*I *1318:ZN O *D gf180mcu_fd_sc_mcu7t5v0__aoi21_1
*CAP
1 *1320:A2 0.000351451
2 *1318:ZN 0.000351451
3 *1320:A2 *1318:A1 3.0177e-06
4 *1320:A2 *1324:A2 2.2088e-05
5 *1320:A2 *1437:RN 0
6 *1320:A2 *208:151 2.37695e-05
7 *1320:A2 *289:14 0.000227464
*RES
1 *1318:ZN *1320:A2 20.34 
*END

*D_NET *146 0.0172038
*CONN
*I *1320:B I *D gf180mcu_fd_sc_mcu7t5v0__oai21_1
*I *1319:ZN O *D gf180mcu_fd_sc_mcu7t5v0__nand2_1
*CAP
1 *1320:B 0.000334515
2 *1319:ZN 0.0026687
3 *146:34 0.00300321
4 *1320:B *423:I 1.03727e-05
5 *1320:B *1324:A1 0.000128255
6 *1320:B *1563:I 8.57587e-05
7 *1320:B *241:88 0.00168016
8 *1320:B *267:18 5.78854e-06
9 *146:34 *361:I 0.000332757
10 *146:34 *1323:A1 0.00352738
11 *146:34 *1324:B 0.000284098
12 *146:34 *1328:B 0.000101516
13 *146:34 *1393:S 0.00012974
14 *146:34 *1394:I0 8.37046e-05
15 *146:34 *1424:CLK 2.61674e-05
16 *146:34 *1444:RN 1.69292e-05
17 *146:34 *1444:CLK 7.71613e-05
18 *146:34 *1489:I 0.000747719
19 *146:34 *1514:I 0.000415336
20 *146:34 *1532:I 0.000193613
21 *146:34 *212:13 2.03387e-06
22 *146:34 *212:28 0.000154517
23 *146:34 *215:10 2.11175e-05
24 *146:34 *241:88 0.00115203
25 *146:34 *241:111 0.000774201
26 *146:34 *243:79 2.60534e-05
27 *146:34 *276:203 5.60389e-05
28 *146:34 *284:24 8.34973e-05
29 *146:34 *284:31 4.10163e-05
30 *146:34 *339:10 0.000207059
31 *1438:D *1320:B 0.00083334
32 *1439:D *146:34 0
*RES
1 *1319:ZN *146:34 49.77 
2 *146:34 *1320:B 9.9 
*END

*D_NET *147 0.006751
*CONN
*I *1368:A2 I *D gf180mcu_fd_sc_mcu7t5v0__aoi211_2
*I *1333:A2 I *D gf180mcu_fd_sc_mcu7t5v0__aoi21_1
*I *1544:I I *D gf180mcu_fd_sc_mcu7t5v0__buf_2
*I *1321:ZN O *D gf180mcu_fd_sc_mcu7t5v0__nor2_4
*CAP
1 *1368:A2 0.000184156
2 *1333:A2 0.000194922
3 *1544:I 0.000844307
4 *1321:ZN 0.000413648
5 *147:22 0.000809738
6 *1333:A2 *441:I 0.000966839
7 *1333:A2 *276:192 0.000356345
8 *1368:A2 *1342:A2 0
9 *1368:A2 *266:20 0.000184689
10 *1368:A2 *327:36 1.22012e-05
11 *1544:I *368:I 0.000252313
12 *1544:I *1365:A2 2.30981e-05
13 *1544:I *243:67 0.000309289
14 *1544:I *268:25 4.6443e-05
15 *1544:I *290:40 0.000336491
16 *147:22 *1365:A2 4.45165e-05
17 *147:22 *243:67 0.000223398
18 *147:22 *266:20 0.000403141
19 *147:22 *327:36 2.68385e-05
20 *1325:A1 *1544:I 0.000955569
21 *1329:A4 *1544:I 9.85004e-05
22 *1341:A1 *1544:I 3.37634e-05
23 *1368:A1 *1368:A2 3.07932e-05
24 *144:52 *147:22 0
*RES
1 *1321:ZN *1544:I 14.31 
2 *1544:I *147:22 8.01 
3 *147:22 *1333:A2 16.29 
4 *147:22 *1368:A2 6.12 
*END

*D_NET *148 0.00356379
*CONN
*I *1324:A2 I *D gf180mcu_fd_sc_mcu7t5v0__oai21_1
*I *1322:ZN O *D gf180mcu_fd_sc_mcu7t5v0__aoi21_1
*CAP
1 *1324:A2 0.00072741
2 *1322:ZN 0.00072741
3 *1324:A2 *1318:A1 0.000752664
4 *1324:A2 *1324:A1 0.000276159
5 *1324:A2 *241:88 0.000698334
6 *1324:A2 *289:14 0
7 *1324:A2 *333:16 0
8 *1324:A2 *333:22 0
9 *1318:A2 *1324:A2 0.000279601
10 *1320:A2 *1324:A2 2.2088e-05
11 *1438:D *1324:A2 3.66676e-05
12 *132:12 *1324:A2 4.34597e-05
*RES
1 *1322:ZN *1324:A2 24.57 
*END

*D_NET *149 0.0116484
*CONN
*I *1324:B I *D gf180mcu_fd_sc_mcu7t5v0__oai21_1
*I *1323:ZN O *D gf180mcu_fd_sc_mcu7t5v0__nand2_1
*CAP
1 *1324:B 0.00229509
2 *1323:ZN 0.00229509
3 *1324:B *361:I 1.19154e-05
4 *1324:B *393:I 3.97987e-05
5 *1324:B *409:I 0.000312424
6 *1324:B *417:I 0.00015827
7 *1324:B *1323:A1 0.00109415
8 *1324:B *1391:I0 0.000418055
9 *1324:B *1420:CLK 0.000532887
10 *1324:B *1421:CLK 0.000412358
11 *1324:B *1442:RN 3.19991e-05
12 *1324:B *1532:I 0.000155403
13 *1324:B *191:20 0.000229573
14 *1324:B *208:205 2.37216e-05
15 *1324:B *208:215 5.64086e-05
16 *1324:B *208:229 0.000253381
17 *1324:B *208:241 0.000859756
18 *1324:B *212:13 0.000696931
19 *1324:B *222:18 4.69216e-05
20 *1324:B *222:33 0.000373851
21 *1324:B *241:88 7.25287e-05
22 *1324:B *241:111 0.000188199
23 *1324:B *322:16 0.000726822
24 *1439:D *1324:B 7.87389e-05
25 *146:34 *1324:B 0.000284098
*RES
1 *1323:ZN *1324:B 42.84 
*END

*D_NET *150 0.00985246
*CONN
*I *1563:I I *D gf180mcu_fd_sc_mcu7t5v0__clkbuf_1
*I *1359:B I *D gf180mcu_fd_sc_mcu7t5v0__aoi211_2
*I *1325:ZN O *D gf180mcu_fd_sc_mcu7t5v0__nor4_4
*CAP
1 *1563:I 0.000575908
2 *1359:B 0.00148038
3 *1325:ZN 0.000904475
4 *1359:B *392:I 2.04557e-05
5 *1359:B *1437:RN 0.000281666
6 *1359:B *153:6 0.000150348
7 *1359:B *170:26 0.00015098
8 *1359:B *208:123 0.000249411
9 *1359:B *208:135 0
10 *1359:B *229:51 0.001025
11 *1359:B *230:41 0.000562988
12 *1359:B *267:18 0.000139741
13 *1359:B *268:31 1.74705e-05
14 *1359:B *272:59 8.12059e-05
15 *1359:B *335:49 0.000351457
16 *1563:I *392:I 4.24065e-05
17 *1563:I *1324:A1 5.2861e-06
18 *1563:I *1496:I 2.36954e-05
19 *1563:I *267:18 0.00216465
20 *1563:I *289:14 0.000187936
21 *1320:B *1563:I 8.57587e-05
22 *1438:D *1359:B 0.000281666
23 *1438:D *1563:I 0.000338183
24 *94:54 *1359:B 0.000731403
*RES
1 *1325:ZN *1359:B 28.35 
2 *1359:B *1563:I 25.11 
*END

*D_NET *151 0.00396093
*CONN
*I *1328:A2 I *D gf180mcu_fd_sc_mcu7t5v0__oai21_1
*I *1326:ZN O *D gf180mcu_fd_sc_mcu7t5v0__aoi21_1
*CAP
1 *1328:A2 0.000513634
2 *1326:ZN 0.000513634
3 *1328:A2 *1326:A1 0.000444513
4 *1328:A2 *1328:B 0.00118107
5 *1328:A2 *1438:CLK 1.86887e-06
6 *1328:A2 *1440:CLK 4.29972e-05
7 *1328:A2 *208:123 0
8 *1328:A2 *208:135 0.000342213
9 *1328:A2 *221:13 5.14056e-05
10 *1328:A2 *335:49 0.000436469
11 *1439:D *1328:A2 0.000425752
12 *1440:D *1328:A2 7.37195e-06
*RES
1 *1326:ZN *1328:A2 24.84 
*END

*D_NET *152 0.009818
*CONN
*I *1328:B I *D gf180mcu_fd_sc_mcu7t5v0__oai21_1
*I *1327:ZN O *D gf180mcu_fd_sc_mcu7t5v0__nand2_1
*CAP
1 *1328:B 0.00283232
2 *1327:ZN 0.00283232
3 *1328:B *1309:A1 4.03416e-05
4 *1328:B *1309:A2 1.15771e-05
5 *1328:B *1312:A2 0
6 *1328:B *1316:A1 3.33132e-06
7 *1328:B *1323:A1 0.000118259
8 *1328:B *1327:A1 0.000134595
9 *1328:B *1327:A2 0.000209048
10 *1328:B *1356:C 3.58674e-05
11 *1328:B *1468:I 0.000369002
12 *1328:B *208:123 0
13 *1328:B *208:135 6.34448e-05
14 *1328:B *208:205 5.04358e-06
15 *1328:B *230:41 0
16 *1328:B *268:25 0.00109269
17 *1328:B *277:63 3.42827e-05
18 *1328:B *290:34 0
19 *1328:B *290:40 0
20 *1328:B *330:8 6.5437e-05
21 *1328:B *335:49 0.000204168
22 *1312:A1 *1328:B 1.27427e-05
23 *1313:A2 *1328:B 9.09974e-05
24 *1315:A2 *1328:B 2.46306e-05
25 *1328:A2 *1328:B 0.00118107
26 *1437:D *1328:B 0.000147095
27 *1439:D *1328:B 4.76678e-05
28 *144:52 *1328:B 0.000160551
29 *146:34 *1328:B 0.000101516
*RES
1 *1327:ZN *1328:B 38.97 
*END

*D_NET *153 0.00784817
*CONN
*I *1562:I I *D gf180mcu_fd_sc_mcu7t5v0__clkbuf_1
*I *1365:B1 I *D gf180mcu_fd_sc_mcu7t5v0__aoi221_2
*I *1329:ZN O *D gf180mcu_fd_sc_mcu7t5v0__nor4_4
*CAP
1 *1562:I 0.00046318
2 *1365:B1 0.000131185
3 *1329:ZN 0.000234821
4 *153:6 0.000829186
5 *1365:B1 *1331:A1 0.000299724
6 *1365:B1 *172:22 0.000254162
7 *1365:B1 *207:12 4.54901e-05
8 *1562:I *372:I 7.66944e-05
9 *1562:I *1371:A1 5.4985e-05
10 *1562:I *1372:A2 0.000213904
11 *1562:I *159:41 3.12451e-05
12 *1562:I *159:43 9.75762e-05
13 *1562:I *170:26 0.00225847
14 *1562:I *229:72 6.78886e-05
15 *1562:I *312:14 0.000121968
16 *153:6 *1366:A2 0.000475333
17 *153:6 *170:26 0.00180646
18 *153:6 *229:51 0.000192593
19 *153:6 *229:72 4.29496e-05
20 *1359:B *153:6 0.000150348
*RES
1 *1329:ZN *153:6 9.45 
2 *153:6 *1365:B1 15.21 
3 *153:6 *1562:I 10.89 
*END

*D_NET *154 0.00229868
*CONN
*I *1332:A2 I *D gf180mcu_fd_sc_mcu7t5v0__oai21_1
*I *1330:ZN O *D gf180mcu_fd_sc_mcu7t5v0__aoi21_1
*CAP
1 *1332:A2 0.000289132
2 *1330:ZN 0.000289132
3 *1332:A2 *1328:A1 0.000215362
4 *1332:A2 *1330:A1 0
5 *1332:A2 *1330:B 0.000433476
6 *1332:A2 *1362:A2 0.00036229
7 *1332:A2 *327:53 0.000308573
8 *1332:A2 *327:55 0.000293601
9 *1332:A2 *336:16 9.63768e-05
10 *1441:D *1332:A2 1.07374e-05
*RES
1 *1330:ZN *1332:A2 12.96 
*END

*D_NET *155 0.00576152
*CONN
*I *1332:B I *D gf180mcu_fd_sc_mcu7t5v0__oai21_1
*I *1331:ZN O *D gf180mcu_fd_sc_mcu7t5v0__nand2_1
*CAP
1 *1332:B 0.000969432
2 *1331:ZN 0.000969432
3 *1332:B *1335:A2 0.000420977
4 *1332:B *1344:B 4.44162e-05
5 *1332:B *1368:C 0.00130138
6 *1332:B *1390:I1 0.000211064
7 *1332:B *159:41 0.000226823
8 *1332:B *270:37 8.32707e-05
9 *1332:B *274:81 0.000456544
10 *1332:B *274:155 1.44866e-05
11 *1332:B *276:192 7.54708e-05
12 *1332:B *290:34 0
13 *1332:B *327:8 0
14 *1333:A1 *1332:B 6.57178e-05
15 *1365:A1 *1332:B 4.06159e-05
16 *1368:A1 *1332:B 0.000237004
17 *144:52 *1332:B 0.000644885
*RES
1 *1331:ZN *1332:B 27.9 
*END

*D_NET *156 0.002571
*CONN
*I *1335:A2 I *D gf180mcu_fd_sc_mcu7t5v0__oai21_1
*I *1333:ZN O *D gf180mcu_fd_sc_mcu7t5v0__aoi21_1
*CAP
1 *1335:A2 0.00043275
2 *1333:ZN 0.00043275
3 *1335:A2 *406:I 3.73774e-06
4 *1335:A2 *441:I 0
5 *1335:A2 *1368:C 0.000292006
6 *1335:A2 *1531:I 5.91492e-05
7 *1335:A2 *1532:I 6.62654e-05
8 *1335:A2 *270:37 5.30751e-05
9 *1335:A2 *274:155 9.72383e-05
10 *1335:A2 *276:192 6.95564e-06
11 *1335:A2 *337:43 0.000340023
12 *1332:B *1335:A2 0.000420977
13 *1333:A1 *1335:A2 0.000317144
14 *1422:D *1335:A2 4.89328e-05
*RES
1 *1333:ZN *1335:A2 22.59 
*END

*D_NET *157 0.00447636
*CONN
*I *1335:B I *D gf180mcu_fd_sc_mcu7t5v0__oai21_1
*I *1334:ZN O *D gf180mcu_fd_sc_mcu7t5v0__nand2_1
*CAP
1 *1335:B 0.000938517
2 *1334:ZN 0.000938517
3 *1335:B *355:I 0
4 *1335:B *1323:A1 0
5 *1335:B *1335:A1 2.2374e-05
6 *1335:B *1391:I0 0.000492928
7 *1335:B *1531:I 0.00119253
8 *1335:B *1532:I 0.000193822
9 *1335:B *241:111 0.000169278
10 *1335:B *274:155 0.000160821
11 *1335:B *274:183 0
12 *1335:B *283:8 0.000365445
13 *1442:D *1335:B 2.12491e-06
*RES
1 *1334:ZN *1335:B 36.09 
*END

*D_NET *158 0.00875848
*CONN
*I *1373:A2 I *D gf180mcu_fd_sc_mcu7t5v0__aoi21_1
*I *1336:ZN O *D gf180mcu_fd_sc_mcu7t5v0__nor2_1
*CAP
1 *1373:A2 0.00261939
2 *1336:ZN 0.00261939
3 *1373:A2 *1357:A2 0.001107
4 *1373:A2 *1372:B 3.22348e-05
5 *1373:A2 *1379:A1 0.000509907
6 *1373:A2 *1598:I 2.55518e-05
7 *1373:A2 *246:14 0.00039259
8 *1373:A2 *272:31 0.000311776
9 *1336:A1 *1373:A2 0.00108304
10 *120:69 *1373:A2 5.76097e-05
*RES
1 *1336:ZN *1373:A2 41.4 
*END

*D_NET *159 0.0107381
*CONN
*I *1368:B I *D gf180mcu_fd_sc_mcu7t5v0__aoi211_2
*I *1371:A2 I *D gf180mcu_fd_sc_mcu7t5v0__aoi211_2
*I *1338:A2 I *D gf180mcu_fd_sc_mcu7t5v0__aoi21_1
*I *1403:B I *D gf180mcu_fd_sc_mcu7t5v0__oai211_1
*I *1337:Z O *D gf180mcu_fd_sc_mcu7t5v0__and3_1
*CAP
1 *1368:B 3.44897e-05
2 *1371:A2 0
3 *1338:A2 0.00024745
4 *1403:B 0.000429411
5 *1337:Z 0.00017003
6 *159:43 0.000318327
7 *159:41 0.000698385
8 *159:12 0.00119246
9 *1338:A2 *1331:A1 4.46803e-05
10 *1338:A2 *1338:A1 5.73562e-05
11 *1338:A2 *1369:A2 0.000474087
12 *1338:A2 *1371:C 0.00093128
13 *1338:A2 *266:20 0.00023711
14 *1338:A2 *338:39 3.81553e-06
15 *1403:B *208:11 8.56318e-05
16 *1403:B *276:20 0.000730939
17 *1403:B *293:12 0.000839419
18 *1403:B *293:14 0.000214596
19 *159:12 *1349:A1 0.000432749
20 *159:12 *229:72 0
21 *159:41 *372:I 0.00017575
22 *159:41 *1305:B 2.73833e-05
23 *159:41 *1349:A1 0.000531248
24 *159:41 *1371:A1 9.04462e-05
25 *159:41 *1372:A2 0.00010117
26 *159:41 *208:11 1.00671e-05
27 *159:41 *274:47 0.000270601
28 *159:41 *274:66 8.68281e-06
29 *159:41 *274:81 0.00014581
30 *159:41 *276:8 6.0995e-06
31 *159:41 *312:14 0
32 *159:43 *1371:A1 0.000375373
33 *159:43 *1372:A2 0.000213904
34 *159:43 *312:14 2.14748e-05
35 *1332:B *159:41 0.000226823
36 *1341:A3 *159:12 2.89427e-06
37 *1502:I *1338:A2 0.000542422
38 *1506:I *159:41 0.00018504
39 *1562:I *159:41 3.12451e-05
40 *1562:I *159:43 9.75762e-05
41 *118:14 *1403:B 0.00027964
42 *118:14 *159:12 0.00015703
43 *118:14 *159:41 9.51606e-05
*RES
1 *1337:Z *159:12 6.48 
2 *159:12 *1403:B 18.45 
3 *159:12 *159:41 14.85 
4 *159:41 *159:43 1.35 
5 *159:43 *1338:A2 17.64 
6 *159:43 *1371:A2 4.5 
7 *159:41 *1368:B 4.77 
*END

*D_NET *160 0.00273678
*CONN
*I *1340:A2 I *D gf180mcu_fd_sc_mcu7t5v0__oai21_1
*I *1338:ZN O *D gf180mcu_fd_sc_mcu7t5v0__aoi21_1
*CAP
1 *1340:A2 0.000489865
2 *1338:ZN 0.000489865
3 *1340:A2 *1340:A1 0.000172257
4 *1340:A2 *1443:CLK 0.000415035
5 *1340:A2 *1514:I 0
6 *1340:A2 *248:65 0.000854738
7 *1340:A2 *248:89 0.000315016
*RES
1 *1338:ZN *1340:A2 22.5 
*END

*D_NET *161 0.000530705
*CONN
*I *1340:B I *D gf180mcu_fd_sc_mcu7t5v0__oai21_1
*I *1339:ZN O *D gf180mcu_fd_sc_mcu7t5v0__nand2_1
*CAP
1 *1340:B 0.000156582
2 *1339:ZN 0.000156582
3 *1340:B *350:I 0.000155004
4 *1340:B *248:65 3.18816e-05
5 *1343:A2 *1340:B 3.06566e-05
*RES
1 *1339:ZN *1340:B 19.17 
*END

*D_NET *162 0.00533758
*CONN
*I *1342:A2 I *D gf180mcu_fd_sc_mcu7t5v0__aoi21_1
*I *1371:B I *D gf180mcu_fd_sc_mcu7t5v0__aoi211_2
*I *1341:ZN O *D gf180mcu_fd_sc_mcu7t5v0__nor4_4
*CAP
1 *1342:A2 9.50044e-05
2 *1371:B 0.000695048
3 *1341:ZN 0.000600043
4 *1342:A2 *1369:A2 0.000482132
5 *1342:A2 *1374:B2 0.000291095
6 *1342:A2 *327:20 4.3194e-05
7 *1371:B *1329:A3 9.49854e-05
8 *1371:B *1331:A1 0.000677584
9 *1371:B *1365:B2 0.000140033
10 *1371:B *1368:C 0.000125958
11 *1371:B *1369:A2 1.7022e-05
12 *1371:B *1371:C 9.04462e-05
13 *1371:B *170:26 0.00163032
14 *1371:B *207:12 2.16833e-05
15 *1371:B *266:20 0.000239608
16 *1371:B *274:97 9.34233e-05
17 *1368:A2 *1342:A2 0
*RES
1 *1341:ZN *1371:B 17.37 
2 *1371:B *1342:A2 10.62 
*END

*D_NET *163 0.0163281
*CONN
*I *1344:A2 I *D gf180mcu_fd_sc_mcu7t5v0__oai21_1
*I *1374:B2 I *D gf180mcu_fd_sc_mcu7t5v0__aoi22_1
*I *1342:ZN O *D gf180mcu_fd_sc_mcu7t5v0__aoi21_1
*CAP
1 *1344:A2 0.000521372
2 *1374:B2 0.00191728
3 *1342:ZN 0
4 *163:4 0.00243865
5 *1344:A2 *429:I 0.000169954
6 *1344:A2 *1344:A1 9.20698e-05
7 *1344:A2 *1344:B 6.17789e-06
8 *1344:A2 *1514:I 5.58606e-05
9 *1344:A2 *327:20 1.00099e-05
10 *1344:A2 *338:28 0.000521102
11 *1374:B2 *431:I 0.000476777
12 *1374:B2 *1287:A1 0.000383727
13 *1374:B2 *1305:A1 0.000763211
14 *1374:B2 *1369:A2 0.000155415
15 *1374:B2 *1376:B 0.00023813
16 *1374:B2 *1379:A1 0.000351978
17 *1374:B2 *1407:B2 0.00031345
18 *1374:B2 *1514:I 3.54228e-06
19 *1374:B2 *231:50 0.00128554
20 *1374:B2 *274:47 0.000938268
21 *1374:B2 *274:97 6.71645e-05
22 *1374:B2 *287:20 0.00131214
23 *1374:B2 *287:44 0.000575655
24 *1374:B2 *287:46 0.000442671
25 *1374:B2 *289:134 4.6613e-06
26 *1374:B2 *327:20 0.000115729
27 *1273:A2 *1374:B2 6.56014e-05
28 *1287:A2 *1374:B2 7.20183e-05
29 *1342:A2 *1374:B2 0.000291095
30 *1407:A1 *1374:B2 0.000352059
31 *1444:D *1344:A2 0.000176182
32 *1452:D *1374:B2 4.80874e-05
33 *1501:I *1374:B2 2.21888e-06
34 *1502:I *1344:A2 0.000220955
35 *1502:I *1374:B2 0.00133336
36 *105:14 *1374:B2 0.00052467
37 *110:33 *1374:B2 8.12986e-05
*RES
1 *1342:ZN *163:4 4.5 
2 *163:4 *1374:B2 45.81 
3 *163:4 *1344:A2 17.64 
*END

*D_NET *164 0.00430745
*CONN
*I *1344:B I *D gf180mcu_fd_sc_mcu7t5v0__oai21_1
*I *1343:ZN O *D gf180mcu_fd_sc_mcu7t5v0__nand2_1
*CAP
1 *1344:B 0.000452484
2 *1343:ZN 0.000452484
3 *1344:B *1340:A1 0.00131232
4 *1344:B *1344:A1 2.60524e-05
5 *1344:B *1443:CLK 5.3289e-05
6 *1344:B *1444:CLK 3.70394e-05
7 *1344:B *270:16 0.000302467
8 *1344:B *270:37 6.12687e-06
9 *1344:B *276:192 0.000106509
10 *1332:B *1344:B 4.44162e-05
11 *1343:A2 *1344:B 0.000367605
12 *1344:A2 *1344:B 6.17789e-06
13 *1444:D *1344:B 0.00114048
*RES
1 *1343:ZN *1344:B 16.2 
*END

*D_NET *165 0.0105742
*CONN
*I *1504:I I *D gf180mcu_fd_sc_mcu7t5v0__dlyb_1
*I *1503:I I *D gf180mcu_fd_sc_mcu7t5v0__dlyb_1
*I *1345:ZN O *D gf180mcu_fd_sc_mcu7t5v0__nor2_1
*CAP
1 *1504:I 0.000102527
2 *1503:I 0.00167768
3 *1345:ZN 0.000197127
4 *165:6 0.00197733
5 *1503:I *1265:I 9.62067e-05
6 *1503:I *1363:B 0
7 *1503:I *1404:B 0
8 *1503:I *1452:CLK 0.000114927
9 *1503:I *1454:CLK 6.20884e-05
10 *1503:I *223:36 3.73774e-06
11 *1503:I *230:41 5.88052e-05
12 *1503:I *265:38 0.00137264
13 *1503:I *296:46 0.00115415
14 *1503:I *299:8 3.46985e-05
15 *1503:I *299:17 5.08346e-05
16 *1504:I *1376:B 0.00113139
17 *1504:I *280:72 0.00113139
18 *165:6 *1345:A1 8.49208e-05
19 *165:6 *223:36 4.08662e-05
20 *165:6 *265:14 0.000105954
21 *1450:D *1503:I 0.000628116
22 *1452:D *1503:I 0.000108775
23 *1452:D *165:6 8.46047e-06
24 *1510:I *1503:I 0.000294951
25 *104:12 *1503:I 0
26 *105:14 *1503:I 2.60524e-05
27 *122:20 *1503:I 0.000110565
*RES
1 *1345:ZN *165:6 5.85 
2 *165:6 *1503:I 28.26 
3 *165:6 *1504:I 16.65 
*END

*D_NET *166 0.041006
*CONN
*I *378:I I *D gf180mcu_fd_sc_mcu7t5v0__antenna
*I *379:I I *D gf180mcu_fd_sc_mcu7t5v0__antenna
*I *1348:B I *D gf180mcu_fd_sc_mcu7t5v0__oai21_1
*I *1346:ZN O *D gf180mcu_fd_sc_mcu7t5v0__nand2_1
*CAP
1 *378:I 0.000636828
2 *379:I 0.00622024
3 *1348:B 0
4 *1346:ZN 0
5 *166:24 0.00543445
6 *166:12 0.0121584
7 *166:6 0.00114055
8 *378:I *377:I 0.000439413
9 *378:I *1415:A2 9.26862e-05
10 *378:I *272:117 0.0012132
11 *166:12 *1346:A1 8.47392e-05
12 *166:12 *1415:A2 4.67324e-05
13 *166:12 *168:26 2.34653e-06
14 *166:12 *168:35 7.63006e-06
15 *166:24 *350:I 0
16 *166:24 *1260:I 0.00304519
17 *166:24 *1304:A1 0.000101485
18 *166:24 *1346:A1 0
19 *166:24 *1354:A2 0.00644385
20 *166:24 *168:26 0.000165132
21 *166:24 *177:24 9.61825e-05
22 *166:24 *229:22 3.7834e-05
23 *166:24 *239:12 0
24 *166:24 *239:18 0.00218305
25 *166:24 *298:26 0.000203041
26 *1299:B *378:I 3.71284e-05
27 *1299:B *166:12 2.17429e-05
28 *1301:B1 *378:I 0.000283122
29 *1301:B2 *378:I 3.78027e-05
30 *1501:I *166:24 0.000873204
31 *7:26 *166:24 0
*RES
1 *1346:ZN *166:6 9 
2 *166:6 *166:12 6.77893 
3 *166:12 *166:24 46.5502 
4 *166:24 *1348:B 9 
5 *166:12 *379:I 31.2235 
6 *166:6 *378:I 15.57 
*END

*D_NET *167 0.013396
*CONN
*I *1348:A2 I *D gf180mcu_fd_sc_mcu7t5v0__oai21_1
*I *1347:ZN O *D gf180mcu_fd_sc_mcu7t5v0__aoi211_2
*CAP
1 *1348:A2 0.000505937
2 *1347:ZN 0.000505937
3 *1348:A2 *1260:I 0.000213112
4 *1348:A2 *1262:I 6.57065e-05
5 *1348:A2 *1304:A1 5.84278e-06
6 *1348:A2 *1304:A2 0.00234367
7 *1348:A2 *276:77 4.87375e-05
8 *1348:A2 *285:51 0.0025654
9 *1348:A2 *285:57 0.000668092
10 *1348:A2 *296:61 0.00239974
11 *1310:B *1348:A2 0.00403978
12 *1445:D *1348:A2 3.40233e-05
*RES
1 *1347:ZN *1348:A2 35.55 
*END

*D_NET *168 0.0330704
*CONN
*I *382:I I *D gf180mcu_fd_sc_mcu7t5v0__antenna
*I *381:I I *D gf180mcu_fd_sc_mcu7t5v0__antenna
*I *1351:B I *D gf180mcu_fd_sc_mcu7t5v0__oai21_1
*I *1349:ZN O *D gf180mcu_fd_sc_mcu7t5v0__nand2_1
*CAP
1 *382:I 0.00104474
2 *381:I 8.4342e-05
3 *1351:B 0.000211109
4 *1349:ZN 5.99444e-05
5 *168:35 0.00192529
6 *168:26 0.0056462
7 *168:10 0.00629124
8 *381:I *225:14 7.86626e-05
9 *381:I *272:117 6.1299e-06
10 *381:I *310:16 9.20679e-05
11 *382:I *386:I 0.00048814
12 *382:I *415:I 0.0002249
13 *382:I *1274:A1 3.05952e-06
14 *382:I *1352:A1 1.35901e-05
15 *382:I *1355:A2 9.74182e-05
16 *382:I *170:26 0.00053327
17 *382:I *170:55 0.000517356
18 *382:I *272:86 0.000215647
19 *382:I *272:97 0.000683416
20 *382:I *272:109 0.00169321
21 *382:I *272:186 5.4942e-06
22 *382:I *296:116 3.3894e-05
23 *382:I *324:23 0.00183259
24 *382:I *325:8 0.000128732
25 *382:I *325:12 1.99414e-05
26 *1351:B *1364:A1 0.000272792
27 *1351:B *1448:CLK 0.000388375
28 *1351:B *246:39 0.000951316
29 *1351:B *281:35 0.000116594
30 *1351:B *281:43 1.07374e-05
31 *168:10 *1349:A1 0.000211575
32 *168:10 *272:125 3.12451e-05
33 *168:10 *310:16 4.51807e-06
34 *168:26 *1246:I 0.00129685
35 *168:26 *1354:B 0.000256997
36 *168:26 *1360:A2 0
37 *168:26 *1361:A1 0.000361047
38 *168:26 *1448:RN 0.000314076
39 *168:26 *216:21 0.000327003
40 *168:35 *415:I 0.000221831
41 dac_p[4] *1351:B 3.08083e-05
42 *1301:A2 *168:10 1.46628e-05
43 *1350:B *168:26 0.00042963
44 *1456:D *168:26 0.00131685
45 *1460:D *382:I 0.000890296
46 *1464:D *381:I 0.000285538
47 *1501:I *168:26 0.00206204
48 *94:16 *168:26 0.00117011
49 *123:65 *168:35 0
50 *166:12 *168:26 2.34653e-06
51 *166:12 *168:35 7.63006e-06
52 *166:24 *168:26 0.000165132
*RES
1 *1349:ZN *168:10 14.13 
2 *168:10 *168:26 48.6 
3 *168:26 *1351:B 8.73 
4 *168:10 *168:35 3.87 
5 *168:35 *381:I 14.58 
6 *168:35 *382:I 28.26 
*END

*D_NET *169 0.00938212
*CONN
*I *1351:A2 I *D gf180mcu_fd_sc_mcu7t5v0__oai21_1
*I *1350:ZN O *D gf180mcu_fd_sc_mcu7t5v0__aoi211_1
*CAP
1 *1351:A2 0.0015281
2 *1350:ZN 0.0015281
3 *1351:A2 *1262:I 0
4 *1351:A2 *1291:A1 0.0010095
5 *1351:A2 *1308:A1 0.000239418
6 *1351:A2 *1378:A2 0.000300296
7 *1351:A2 *1593:I 0.000631995
8 *1351:A2 *1594:I 0.000229055
9 *1351:A2 *1595:I 9.30128e-05
10 *1351:A2 *229:22 0.000675231
11 *1351:A2 *269:29 0.000196821
12 *1351:A2 *276:91 0.00152037
13 samp_bot *1351:A2 0.000407241
14 samp_top *1351:A2 1.4106e-05
15 *1308:A2 *1351:A2 7.08402e-05
16 *1310:B *1351:A2 7.8834e-05
17 *1350:A2 *1351:A2 0.000465534
18 *1445:D *1351:A2 0.00026284
19 *7:26 *1351:A2 0.000103812
20 *136:32 *1351:A2 2.70026e-05
*RES
1 *1350:ZN *1351:A2 36.45 
*END

*D_NET *170 0.0381712
*CONN
*I *385:I I *D gf180mcu_fd_sc_mcu7t5v0__antenna
*I *386:I I *D gf180mcu_fd_sc_mcu7t5v0__antenna
*I *1354:B I *D gf180mcu_fd_sc_mcu7t5v0__oai21_1
*I *1352:ZN O *D gf180mcu_fd_sc_mcu7t5v0__nand2_1
*CAP
1 *385:I 0.00014946
2 *386:I 0.00041793
3 *1354:B 0.00152285
4 *1352:ZN 0
5 *170:55 0.000967307
6 *170:26 0.00366299
7 *170:6 0.00254006
8 *385:I *383:I 8.22041e-06
9 *385:I *419:I 0
10 *385:I *172:57 3.29905e-05
11 *385:I *241:119 7.579e-05
12 *386:I *1355:A1 0.000599548
13 *386:I *1355:A2 8.56844e-05
14 *386:I *172:57 2.32801e-05
15 *386:I *272:186 3.76961e-05
16 *1354:B *1271:A1 0.000519716
17 *1354:B *1398:I1 6.97781e-05
18 *1354:B *1448:CLK 0.000816592
19 *1354:B *209:23 0.000614837
20 *1354:B *209:25 0.000310437
21 *1354:B *241:31 0.00043777
22 *1354:B *241:62 0.00102436
23 *1354:B *265:38 0.000429396
24 *1354:B *289:6 1.80559e-05
25 *1354:B *289:14 0.00438465
26 *1354:B *289:99 1.80607e-05
27 *1354:B *296:46 0.000423105
28 *1354:B *296:69 0.000150744
29 *170:26 *1329:A3 4.51807e-06
30 *170:26 *1341:A2 0.000113797
31 *170:26 *1353:A1 3.73774e-06
32 *170:26 *1353:C 0.000346684
33 *170:26 *1357:A2 9.46924e-05
34 *170:26 *1368:C 3.12451e-05
35 *170:26 *1375:A3 2.21846e-05
36 *170:26 *1432:RN 9.33389e-05
37 *170:26 *1514:I 0.000753807
38 *170:26 *1520:I 1.4382e-06
39 *170:26 *1601:I 8.68281e-06
40 *170:26 *205:25 0.00152066
41 *170:26 *214:26 6.27834e-05
42 *170:26 *214:41 7.96892e-05
43 *170:26 *225:8 4.31565e-05
44 *170:26 *228:10 8.66027e-05
45 *170:26 *228:16 0.00107062
46 *170:26 *228:24 0.000152365
47 *170:26 *229:51 8.02081e-05
48 *170:26 *243:67 0.000333366
49 *170:26 *266:20 0.000200749
50 *170:26 *274:97 0.000919617
51 *170:26 *274:108 0
52 *170:26 *296:116 3.47359e-05
53 *170:26 *312:14 6.8618e-06
54 *170:55 *1434:RN 0.000729134
55 *170:55 *172:22 7.58072e-05
56 *170:55 *172:57 1.23607e-05
57 *170:55 *228:10 6.78893e-05
58 *170:55 *241:119 0.000176571
59 *170:55 *272:86 0.00021473
60 *170:55 *296:116 1.17934e-05
61 *170:55 *324:23 0.000210854
62 *382:I *386:I 0.00048814
63 *382:I *170:26 0.00053327
64 *382:I *170:55 0.000517356
65 *1291:A2 *1354:B 1.28431e-05
66 *1307:A2 *1354:B 7.80245e-05
67 *1347:B *1354:B 4.50976e-05
68 *1350:B *1354:B 1.9283e-05
69 *1359:B *170:26 0.00015098
70 *1371:B *170:26 0.00163032
71 *1446:D *1354:B 0.000175717
72 *1447:D *1354:B 6.94177e-06
73 *1459:D *1354:B 0.000532491
74 *1464:D *170:26 0.000474771
75 *1562:I *170:26 0.00225847
76 *94:16 *1354:B 0.0017628
77 *95:8 *1354:B 2.82657e-05
78 *101:16 *170:26 0.000133172
79 *140:12 *170:26 0.000353826
80 *153:6 *170:26 0.00180646
81 *168:26 *1354:B 0.000256997
*RES
1 *1352:ZN *170:6 9 
2 *170:6 *170:26 38.88 
3 *170:26 *1354:B 41.4 
4 *170:6 *170:55 9.36 
5 *170:55 *386:I 17.37 
6 *170:55 *385:I 5.58 
*END

*D_NET *171 0.0145492
*CONN
*I *1354:A2 I *D gf180mcu_fd_sc_mcu7t5v0__oai21_1
*I *1353:ZN O *D gf180mcu_fd_sc_mcu7t5v0__aoi221_2
*CAP
1 *1354:A2 0.00348535
2 *1353:ZN 0.00348535
3 *1354:A2 *1353:C 8.69474e-05
4 *1354:A2 *1357:B 6.02834e-05
5 *1354:A2 *229:22 0.000649268
6 *1354:A2 *298:26 0
7 *1347:B *1354:A2 0.000223398
8 *1447:D *1354:A2 0.000114714
9 *7:26 *1354:A2 0
10 *166:24 *1354:A2 0.00644385
*RES
1 *1353:ZN *1354:A2 48.7829 
*END

*D_NET *172 0.0327097
*CONN
*I *390:I I *D gf180mcu_fd_sc_mcu7t5v0__antenna
*I *389:I I *D gf180mcu_fd_sc_mcu7t5v0__antenna
*I *1357:B I *D gf180mcu_fd_sc_mcu7t5v0__oai21_1
*I *1355:ZN O *D gf180mcu_fd_sc_mcu7t5v0__nand2_1
*CAP
1 *390:I 9.78291e-05
2 *389:I 0
3 *1357:B 0.00400998
4 *1355:ZN 0
5 *172:57 0.000429226
6 *172:22 0.00736553
7 *172:4 0.00368695
8 *390:I *419:I 5.10405e-06
9 *1357:B *1271:A2 0
10 *1357:B *1399:B1 9.49933e-05
11 *1357:B *229:22 0.0042988
12 *1357:B *230:41 0.000383577
13 *1357:B *239:41 0
14 *1357:B *276:46 0.000318321
15 *1357:B *298:26 0.00253314
16 *1357:B *308:20 0.00029509
17 *1357:B *319:18 0
18 *172:22 *406:I 0.000368925
19 *172:22 *419:I 0.00013187
20 *172:22 *444:I 7.01042e-05
21 *172:22 *1319:A1 0
22 *172:22 *1331:A1 2.72953e-05
23 *172:22 *1365:A2 0.0001114
24 *172:22 *1365:B2 0.000151807
25 *172:22 *1525:I 0.000856325
26 *172:22 *207:12 5.22248e-06
27 *172:22 *208:265 0.00103656
28 *172:22 *208:301 0.000555732
29 *172:22 *229:72 4.47028e-05
30 *172:22 *243:67 0.00012678
31 *172:22 *243:79 0.000555774
32 *172:22 *312:14 0.00104833
33 *172:22 *327:53 0.000166204
34 *172:22 *336:16 3.1302e-05
35 *172:57 *419:I 8.59953e-05
36 *172:57 *1355:A1 0.000343086
37 *172:57 *1355:A2 2.93836e-05
38 *172:57 *272:186 2.82223e-05
39 *385:I *172:57 3.29905e-05
40 *386:I *172:57 2.32801e-05
41 *1341:A3 *172:22 0.000498966
42 *1343:A2 *172:22 0
43 *1354:A2 *1357:B 6.02834e-05
44 *1365:B1 *172:22 0.000254162
45 *1428:D *1357:B 5.25269e-05
46 *1430:D *172:22 7.15282e-05
47 *1441:D *172:22 4.51242e-05
48 *1446:D *1357:B 1.21551e-05
49 *96:14 *172:22 0.00195888
50 *108:27 *172:22 0.000318062
51 *108:43 *172:22 0
52 *170:55 *172:22 7.58072e-05
53 *170:55 *172:57 1.23607e-05
*RES
1 *1355:ZN *172:4 4.5 
2 *172:4 *172:22 49.23 
3 *172:22 *1357:B 42.3117 
4 *172:4 *172:57 11.52 
5 *172:57 *389:I 4.5 
6 *172:57 *390:I 5.13 
*END

*D_NET *173 0.0165088
*CONN
*I *1357:A2 I *D gf180mcu_fd_sc_mcu7t5v0__oai21_1
*I *1356:ZN O *D gf180mcu_fd_sc_mcu7t5v0__aoi221_2
*CAP
1 *1357:A2 0.00214765
2 *1356:ZN 0.00214765
3 *1357:A2 *1264:I 0.00151896
4 *1357:A2 *1360:A2 0.000126979
5 *1357:A2 *1360:B 0.00252609
6 *1357:A2 *1373:B 1.79261e-05
7 *1357:A2 *1379:A1 0.000796803
8 *1357:A2 *1598:I 0.000669238
9 *1357:A2 *205:25 0.00122076
10 *1357:A2 *243:67 0.000323074
11 *1357:A2 *244:39 0.000392205
12 *1357:A2 *246:14 0.000281467
13 *1357:A2 *272:31 1.14089e-05
14 *1357:A2 *272:46 4.94785e-05
15 *1357:A2 *272:59 0.00190638
16 *1357:A2 *277:12 0.000143583
17 *1357:A2 *281:29 4.25479e-05
18 *1357:A2 *301:10 0.000108255
19 dac_p[3] *1357:A2 0.000100437
20 *1291:A2 *1357:A2 0.000106536
21 *1373:A2 *1357:A2 0.001107
22 *1448:D *1357:A2 8.07327e-05
23 *1456:D *1357:A2 0.000131469
24 *109:24 *1357:A2 0.000390465
25 *122:20 *1357:A2 6.70264e-05
26 *170:26 *1357:A2 9.46924e-05
*RES
1 *1356:ZN *1357:A2 45.54 
*END

*D_NET *174 0.00623063
*CONN
*I *1360:B I *D gf180mcu_fd_sc_mcu7t5v0__oai21_1
*I *1358:ZN O *D gf180mcu_fd_sc_mcu7t5v0__nand2_1
*CAP
1 *1360:B 0.00106409
2 *1358:ZN 0.00106409
3 *1360:B *1360:A2 4.93098e-06
4 *1360:B *1372:B 8.87584e-05
5 *1360:B *1374:B1 0.000907219
6 *1360:B *1449:CLK 9.09805e-05
7 *1360:B *1579:I 2.65028e-05
8 *1360:B *246:14 2.49093e-05
9 *1360:B *273:61 7.49135e-05
10 *1360:B *301:10 8.98047e-05
11 dac_p[4] *1360:B 9.09805e-05
12 *1357:A2 *1360:B 0.00252609
13 *86:18 *1360:B 0.000177361
*RES
1 *1358:ZN *1360:B 27.99 
*END

*D_NET *175 0.0127484
*CONN
*I *1360:A2 I *D gf180mcu_fd_sc_mcu7t5v0__oai21_1
*I *1359:ZN O *D gf180mcu_fd_sc_mcu7t5v0__aoi211_2
*CAP
1 *1360:A2 0.00335587
2 *1359:ZN 0.00335587
3 *1360:A2 *1246:I 3.25099e-05
4 *1360:A2 *1302:A1 0.000445479
5 *1360:A2 *1317:A1 0.0002787
6 *1360:A2 *1322:A2 0.000168592
7 *1360:A2 *1356:C 0
8 *1360:A2 *1372:B 6.71645e-05
9 *1360:A2 *1374:B1 7.3603e-06
10 *1360:A2 *1487:I 1.92304e-05
11 *1360:A2 *1520:I 5.0722e-05
12 *1360:A2 *1549:I 0.000193622
13 *1360:A2 *1598:I 3.76583e-05
14 *1360:A2 *204:8 0.000148172
15 *1360:A2 *216:21 9.97766e-05
16 *1360:A2 *244:39 7.32377e-05
17 *1360:A2 *277:12 0.000570687
18 *1360:A2 *281:29 0.000481664
19 *1360:A2 *289:99 9.74601e-05
20 *1360:A2 *301:10 9.7659e-06
21 *1360:A2 *333:22 1.52092e-05
22 dac_p[3] *1360:A2 0.000551687
23 dac_p[4] *1360:A2 3.99116e-05
24 *1291:A2 *1360:A2 6.58315e-05
25 *1307:A2 *1360:A2 3.08806e-06
26 *1317:A2 *1360:A2 0.000158788
27 *1353:B1 *1360:A2 0.000188742
28 *1356:A2 *1360:A2 0
29 *1357:A2 *1360:A2 0.000126979
30 *1359:A1 *1360:A2 0.000119368
31 *1360:B *1360:A2 4.93098e-06
32 *1449:D *1360:A2 0.000135043
33 *1501:I *1360:A2 0.00130537
34 *86:18 *1360:A2 0.000206988
35 *109:24 *1360:A2 5.21541e-05
36 *132:12 *1360:A2 0.000180283
37 *140:12 *1360:A2 7.28672e-05
38 *143:14 *1360:A2 2.75959e-05
39 *168:26 *1360:A2 0
*RES
1 *1359:ZN *1360:A2 46.26 
*END

*D_NET *176 0.00794275
*CONN
*I *1363:B I *D gf180mcu_fd_sc_mcu7t5v0__oai21_1
*I *1361:ZN O *D gf180mcu_fd_sc_mcu7t5v0__nand2_1
*CAP
1 *1363:B 0.00176568
2 *1361:ZN 0.00176568
3 *1363:B *400:I 0.000556848
4 *1363:B *1249:I 0.000156812
5 *1363:B *1270:A1 0.000220717
6 *1363:B *1270:A2 0.000158798
7 *1363:B *1361:A2 8.64434e-05
8 *1363:B *1366:A2 0
9 *1363:B *1448:RN 0.000459198
10 *1363:B *1454:CLK 6.89668e-06
11 *1363:B *1479:I 0.0001424
12 *1363:B *1493:I 0.000478774
13 *1363:B *1548:I 0.000220358
14 *1363:B *206:22 0.000136667
15 *1363:B *209:6 0.000525319
16 *1363:B *233:20 0.000100647
17 *1363:B *280:31 4.49639e-05
18 *1363:B *289:99 0.000702689
19 *1363:B *299:8 0.000140554
20 *1363:B *299:17 2.76267e-05
21 *399:I *1363:B 1.0415e-05
22 *1291:A2 *1363:B 6.57541e-06
23 *1503:I *1363:B 0
24 *1510:I *1363:B 0.000228683
*RES
1 *1361:ZN *1363:B 43.74 
*END

*D_NET *177 0.0119576
*CONN
*I *1363:A2 I *D gf180mcu_fd_sc_mcu7t5v0__oai21_1
*I *1362:ZN O *D gf180mcu_fd_sc_mcu7t5v0__aoi211_2
*CAP
1 *1363:A2 0
2 *1362:ZN 0.00408754
3 *177:24 0.00408754
4 *177:24 *438:I 1.92142e-05
5 *177:24 *1341:A4 0.000133954
6 *177:24 *1362:B 0.000119453
7 *177:24 *1366:A2 0.000223326
8 *177:24 *1518:I 1.92015e-06
9 *177:24 *206:14 4.52764e-05
10 *177:24 *266:20 0.00107667
11 *177:24 *290:34 6.14007e-06
12 *177:24 *290:40 1.82153e-05
13 *177:24 *308:20 0.00167382
14 *86:18 *177:24 0.000368372
15 *166:24 *177:24 9.61825e-05
*RES
1 *1362:ZN *177:24 48.8973 
2 *177:24 *1363:A2 4.5 
*END

*D_NET *178 0.00877197
*CONN
*I *1366:B I *D gf180mcu_fd_sc_mcu7t5v0__oai21_1
*I *1364:ZN O *D gf180mcu_fd_sc_mcu7t5v0__nand2_1
*CAP
1 *1366:B 0.0005888
2 *1364:ZN 0.0005888
3 *1366:B *1246:I 0.000428433
4 *1366:B *1364:A1 0.000657584
5 *1366:B *1364:A2 7.77227e-05
6 *1366:B *1578:I 0.000692708
7 *1366:B *1579:I 5.02137e-05
8 *1366:B *246:39 0.000143955
9 dac_p[6] *1366:B 0.000254822
10 dac_p[7] *1366:B 0.0025703
11 dac_p[8] *1366:B 0.00269781
12 *94:16 *1366:B 2.08301e-05
*RES
1 *1364:ZN *1366:B 22.23 
*END

*D_NET *179 0.0112254
*CONN
*I *1366:A2 I *D gf180mcu_fd_sc_mcu7t5v0__oai21_1
*I *1365:ZN O *D gf180mcu_fd_sc_mcu7t5v0__aoi221_2
*CAP
1 *1366:A2 0.00288223
2 *1365:ZN 0.00288223
3 *1366:A2 *349:I 5.8625e-05
4 *1366:A2 *438:I 0.000166798
5 *1366:A2 *1363:A1 0.000205674
6 *1366:A2 *1366:A1 2.53471e-05
7 *1366:A2 *1372:B 2.08301e-05
8 *1366:A2 *1404:A2 1.40873e-05
9 *1366:A2 *1430:SETN 0.000267635
10 *1366:A2 *1454:CLK 0.000334785
11 *1366:A2 *1564:I 0.000181475
12 *1366:A2 *206:14 0.000115232
13 *1366:A2 *206:43 8.13889e-05
14 *1366:A2 *218:8 0.000553231
15 *1366:A2 *218:41 0.000405367
16 *1366:A2 *229:51 3.12451e-05
17 *1366:A2 *229:72 0.000172267
18 *1366:A2 *280:31 9.18941e-05
19 *1366:A2 *296:34 8.14729e-06
20 *1366:A2 *302:10 0.000469222
21 *1366:A2 *302:18 0.000110684
22 *1363:B *1366:A2 0
23 *1397:A1 *1366:A2 2.96824e-06
24 *1429:D *1366:A2 0.000336348
25 *1510:I *1366:A2 0.00027137
26 *97:14 *1366:A2 3.18106e-05
27 *108:14 *1366:A2 0.000474472
28 *108:43 *1366:A2 0.000119086
29 *122:20 *1366:A2 0.000212254
30 *153:6 *1366:A2 0.000475333
31 *177:24 *1366:A2 0.000223326
*RES
1 *1365:ZN *1366:A2 40.23 
*END

*D_NET *180 0.00255808
*CONN
*I *1369:B I *D gf180mcu_fd_sc_mcu7t5v0__oai21_1
*I *1367:ZN O *D gf180mcu_fd_sc_mcu7t5v0__nand2_1
*CAP
1 *1369:B 0.000576524
2 *1367:ZN 0.000576524
3 *1369:B *1367:A2 4.34199e-06
4 *1369:B *1548:I 0.000945342
5 *1369:B *1571:I 2.38851e-06
6 *1369:B *248:65 0
7 *1369:B *296:34 0.000112284
8 *1369:B *342:30 0.000331353
9 *122:20 *1369:B 9.3226e-06
*RES
1 *1367:ZN *1369:B 23.4 
*END

*D_NET *181 0.0116252
*CONN
*I *1369:A2 I *D gf180mcu_fd_sc_mcu7t5v0__oai21_1
*I *1368:ZN O *D gf180mcu_fd_sc_mcu7t5v0__aoi211_2
*CAP
1 *1369:A2 0.00303925
2 *1368:ZN 0.00303925
3 *1369:A2 *1259:I 0.000160557
4 *1369:A2 *1290:A1 0.000147657
5 *1369:A2 *1290:A2 0.000132632
6 *1369:A2 *1377:A3 0.000899488
7 *1369:A2 *1407:B2 9.84805e-05
8 *1369:A2 *1462:RN 0
9 *1369:A2 *1499:I 2.9755e-05
10 *1369:A2 *1514:I 0.000396118
11 *1369:A2 *1522:I 2.96775e-05
12 *1369:A2 *1548:I 0
13 *1369:A2 *208:385 0.000103133
14 *1369:A2 *224:12 0.000104776
15 *1369:A2 *248:65 0.00012545
16 *1369:A2 *266:20 0.000283705
17 *1369:A2 *274:97 3.10415e-05
18 *1369:A2 *327:20 1.84472e-05
19 *1338:A2 *1369:A2 0.000474087
20 *1342:A2 *1369:A2 0.000482132
21 *1368:A1 *1369:A2 1.86887e-06
22 *1371:B *1369:A2 1.7022e-05
23 *1374:B2 *1369:A2 0.000155415
24 *1383:A1 *1369:A2 0.000328446
25 *1407:A1 *1369:A2 0.00140216
26 *1455:D *1369:A2 0.000124632
*RES
1 *1368:ZN *1369:A2 41.76 
*END

*D_NET *182 0.0093334
*CONN
*I *1372:B I *D gf180mcu_fd_sc_mcu7t5v0__oai21_1
*I *1370:ZN O *D gf180mcu_fd_sc_mcu7t5v0__nand2_1
*CAP
1 *1372:B 0.00157157
2 *1370:ZN 0.00157157
3 *1372:B *349:I 0.000512201
4 *1372:B *363:I 0.000190167
5 *1372:B *447:I 0.000406991
6 *1372:B *1287:A1 0.000181527
7 *1372:B *1364:A2 0.000177559
8 *1372:B *1370:A1 4.21765e-05
9 *1372:B *1379:A1 0.00151168
10 *1372:B *1564:I 0.0011531
11 *1372:B *1579:I 7.77384e-05
12 *1372:B *206:43 0.000190306
13 *1372:B *248:48 2.36472e-05
14 *1372:B *273:61 3.54822e-05
15 *1372:B *281:29 0.000676462
16 dac_p[3] *1372:B 0.000119087
17 dac_p[6] *1372:B 0.000169515
18 *1336:A1 *1372:B 0.000177559
19 *1360:A2 *1372:B 6.71645e-05
20 *1360:B *1372:B 8.87584e-05
21 *1366:A2 *1372:B 2.08301e-05
22 *1373:A2 *1372:B 3.22348e-05
23 *122:20 *1372:B 0.000336074
*RES
1 *1370:ZN *1372:B 36.27 
*END

*D_NET *183 0.00962142
*CONN
*I *1372:A2 I *D gf180mcu_fd_sc_mcu7t5v0__oai21_1
*I *1371:ZN O *D gf180mcu_fd_sc_mcu7t5v0__aoi211_2
*CAP
1 *1372:A2 0.00224658
2 *1371:ZN 0.00224658
3 *1372:A2 *348:I 0.000172084
4 *1372:A2 *430:I 0.000153283
5 *1372:A2 *1290:A2 6.77198e-05
6 *1372:A2 *1331:A1 0.000427492
7 *1372:A2 *1345:A2 9.01188e-05
8 *1372:A2 *1548:I 0.000160069
9 *1372:A2 *1551:I 0.000307432
10 *1372:A2 *231:50 0.000434954
11 *1372:A2 *274:47 0.000205239
12 *1372:A2 *274:81 0.000500902
13 *1372:A2 *280:72 0.00035464
14 *1372:A2 *304:12 0.00118451
15 *1372:A2 *342:30 0.000111961
16 *1292:B1 *1372:A2 4.65895e-05
17 *1407:A1 *1372:A2 0
18 *1469:I *1372:A2 0.000105559
19 *1501:I *1372:A2 0.000116183
20 *1502:I *1372:A2 6.22044e-06
21 *1562:I *1372:A2 0.000213904
22 *110:37 *1372:A2 0.000154318
23 *159:41 *1372:A2 0.00010117
24 *159:43 *1372:A2 0.000213904
*RES
1 *1371:ZN *1372:A2 37.98 
*END

*D_NET *184 0.00821099
*CONN
*I *1374:B1 I *D gf180mcu_fd_sc_mcu7t5v0__aoi22_1
*I *1373:ZN O *D gf180mcu_fd_sc_mcu7t5v0__aoi21_1
*CAP
1 *1374:B1 0.00303781
2 *1373:ZN 0.00303781
3 *1374:B1 *1361:A2 8.49208e-05
4 *1374:B1 *1549:I 2.60586e-05
5 *1374:B1 *233:20 0
6 *1374:B1 *244:39 9.85915e-05
7 *1374:B1 *273:10 0.000809582
8 *1374:B1 *289:134 3.51319e-05
9 *1374:B1 *298:14 0
10 *1374:B1 *301:10 6.34976e-05
11 *1360:A2 *1374:B1 7.3603e-06
12 *1360:B *1374:B1 0.000907219
13 *86:18 *1374:B1 8.78844e-05
14 *120:69 *1374:B1 1.51171e-05
*RES
1 *1373:ZN *1374:B1 42.66 
*END

*D_NET *185 0.00692452
*CONN
*I *1377:A2 I *D gf180mcu_fd_sc_mcu7t5v0__nor3_1
*I *1375:ZN O *D gf180mcu_fd_sc_mcu7t5v0__nor3_1
*CAP
1 *1377:A2 0.00110412
2 *1375:ZN 0.00110412
3 *1377:A2 *1288:B 0.000950475
4 *1377:A2 *1293:A1 0.000121978
5 *1377:A2 *1296:A1 0.000601695
6 *1377:A2 *1375:A1 4.12855e-05
7 *1377:A2 *1460:CLK 9.82427e-05
8 *1377:A2 *1542:I 3.87145e-05
9 *1377:A2 *1601:I 0.000790492
10 *1377:A2 *208:397 0.000514489
11 *1377:A2 *248:65 0.000360295
12 *1377:A2 *345:25 0.000476091
13 *1377:A1 *1377:A2 8.69576e-05
14 *4:30 *1377:A2 0.000635554
*RES
1 *1375:ZN *1377:A2 31.32 
*END

*D_NET *186 0.0033618
*CONN
*I *1377:A3 I *D gf180mcu_fd_sc_mcu7t5v0__nor3_1
*I *1376:ZN O *D gf180mcu_fd_sc_mcu7t5v0__aoi21_1
*CAP
1 *1377:A3 0.000635297
2 *1376:ZN 0.000635297
3 *1377:A3 *1290:A2 0.000333648
4 *1377:A3 *208:385 6.92991e-06
5 *1377:A3 *224:19 9.67415e-05
6 *1377:A3 *279:10 0.000404105
7 *1369:A2 *1377:A3 0.000899488
8 *1376:A1 *1377:A3 4.09373e-05
9 *1383:A3 *1377:A3 4.26126e-05
10 *1407:A1 *1377:A3 0.00025719
11 *1455:D *1377:A3 9.55714e-06
*RES
1 *1376:ZN *1377:A3 24.48 
*END

*D_NET *187 0.0144338
*CONN
*I *1379:A3 I *D gf180mcu_fd_sc_mcu7t5v0__nor3_1
*I *1378:ZN O *D gf180mcu_fd_sc_mcu7t5v0__nor2_1
*CAP
1 *1379:A3 0
2 *1378:ZN 0.00657073
3 *187:22 0.00657073
4 *187:22 *353:I 0
5 *187:22 *1271:A2 5.01024e-05
6 *187:22 *289:14 0.000163093
7 *134:26 *187:22 0.00107909
*RES
1 *1378:ZN *187:22 46.8372 
2 *187:22 *1379:A3 9 
*END

*D_NET *188 0.00534056
*CONN
*I *1382:A1 I *D gf180mcu_fd_sc_mcu7t5v0__nor2_1
*I *1380:ZN O *D gf180mcu_fd_sc_mcu7t5v0__nor2_1
*CAP
1 *1382:A1 0.000781754
2 *1380:ZN 0.000781754
3 *1382:A1 *1281:A1 1.23558e-05
4 *1382:A1 *1281:A3 0.000158798
5 *1382:A1 *1383:A2 0
6 *1382:A1 *1465:RN 3.68017e-05
7 *1382:A1 *1542:I 4.434e-05
8 *1382:A1 *1553:I 0
9 *1382:A1 *288:32 0.000396822
10 *1382:A1 *307:18 7.96333e-06
11 *1380:A1 *1382:A1 8.43214e-05
12 *1462:D *1382:A1 0.00124582
13 *100:31 *1382:A1 0.000334508
14 *100:54 *1382:A1 0.00020664
15 *111:28 *1382:A1 0.00122498
16 *116:20 *1382:A1 2.37076e-05
*RES
1 *1380:ZN *1382:A1 18.09 
*END

*D_NET *189 0.00705393
*CONN
*I *1382:A2 I *D gf180mcu_fd_sc_mcu7t5v0__nor2_1
*I *1381:ZN O *D gf180mcu_fd_sc_mcu7t5v0__nor3_1
*CAP
1 *1382:A2 0.000514433
2 *1381:ZN 0.000514433
3 *1382:A2 *1460:RN 0.000683398
4 *1382:A2 *1569:I 0.00224493
5 *1382:A2 *307:18 0
6 cmp_rst *1382:A2 8.68398e-06
7 dac_n[7] *1382:A2 0
8 dac_n[8] *1382:A2 0.000176928
9 *1457:D *1382:A2 0.00222736
10 *1458:D *1382:A2 3.18747e-06
11 *100:16 *1382:A2 0.000680575
*RES
1 *1381:ZN *1382:A2 29.07 
*END

*D_NET *190 0.00155805
*CONN
*I *1384:B I *D gf180mcu_fd_sc_mcu7t5v0__oai21_1
*I *1383:ZN O *D gf180mcu_fd_sc_mcu7t5v0__nand3_1
*CAP
1 *1384:B 0.000390349
2 *1383:ZN 0.000390349
3 *1384:B *296:34 0
4 *1384:B *296:116 0.000157988
5 *1384:B *305:8 0.000213868
6 *1383:A1 *1384:B 7.69468e-05
7 *1384:A1 *1384:B 0.000299808
8 *121:24 *1384:B 2.87447e-05
*RES
1 *1383:ZN *1384:B 21.33 
*END

*D_NET *191 0.0370813
*CONN
*I *397:I I *D gf180mcu_fd_sc_mcu7t5v0__antenna
*I *398:I I *D gf180mcu_fd_sc_mcu7t5v0__antenna
*I *1396:A2 I *D gf180mcu_fd_sc_mcu7t5v0__nor2_1
*I *1395:ZN O *D gf180mcu_fd_sc_mcu7t5v0__nor2_1
*CAP
1 *397:I 0.000563605
2 *398:I 0.000792512
3 *1396:A2 0.000809953
4 *1395:ZN 0.00164061
5 *191:34 0.00841744
6 *191:20 0.00901919
7 *397:I *441:I 0.000262886
8 *397:I *1390:I0 0.000746288
9 *397:I *256:10 0.000801837
10 *398:I *414:I 0.000262619
11 *398:I *1252:I 3.43981e-05
12 *1396:A2 *1567:I 2.30981e-05
13 *1396:A2 *298:76 7.23061e-05
14 *1396:A2 *341:14 0.000483012
15 *191:20 *355:I 0
16 *191:20 *1314:A1 0.00102182
17 *191:20 *1324:A1 1.20716e-05
18 *191:20 *1385:I1 0.000543503
19 *191:20 *1386:I0 5.71404e-05
20 *191:20 *1387:I1 0.000155701
21 *191:20 *1418:CLK 0.000101735
22 *191:20 *1420:CLK 0.000907439
23 *191:20 *1438:RN 0.000652241
24 *191:20 *1440:RN 3.99345e-05
25 *191:20 *1496:I 0.00110855
26 *191:20 *1591:I 0
27 *191:20 *222:18 0.00054994
28 *191:20 *222:33 0.000987149
29 *191:20 *241:62 3.73774e-06
30 *191:20 *241:88 0.000183517
31 *191:20 *269:65 2.13236e-05
32 *191:20 *314:16 1.35803e-05
33 *191:20 *317:24 0.000348906
34 *191:20 *322:16 0.000413065
35 *191:20 *333:14 5.04694e-06
36 *191:34 *414:I 0.000204353
37 *191:34 *441:I 1.98103e-05
38 *191:34 *1391:I0 5.2092e-05
39 *191:34 *1393:I1 0.00211081
40 *191:34 *225:26 0.000595065
41 *191:34 *241:111 0.000603768
42 *191:34 *298:86 0
43 *191:34 *338:12 0.000336679
44 dac_n[6] *1396:A2 3.22122e-05
45 *1324:B *191:20 0.000229573
46 *1381:A3 *1396:A2 8.32884e-05
47 *1418:D *191:20 0.00037349
48 *1419:D *191:20 0
49 *1421:D *397:I 0.000260411
50 *1421:D *191:20 6.12687e-06
51 *1421:D *191:34 0.000149891
52 *1441:D *191:20 1.39839e-05
53 *1458:D *1396:A2 2.13782e-06
54 *1464:D *1396:A2 5.74032e-05
55 *4:30 *398:I 1.21105e-05
56 *86:18 *1396:A2 5.92728e-05
57 *100:16 *1396:A2 0.000583544
58 *126:28 *1396:A2 0.000239113
*RES
1 *1395:ZN *191:20 29.25 
2 *191:20 *191:34 36.7752 
3 *191:34 *1396:A2 21.4875 
4 *191:34 *398:I 18.6075 
5 *191:20 *397:I 14.67 
*END

*D_NET *192 0.00977082
*CONN
*I *1400:B1 I *D gf180mcu_fd_sc_mcu7t5v0__oai32_4
*I *1398:I1 I *D gf180mcu_fd_sc_mcu7t5v0__mux2_2
*I *1397:ZN O *D gf180mcu_fd_sc_mcu7t5v0__nor2_2
*CAP
1 *1400:B1 0
2 *1398:I1 0.00187047
3 *1397:ZN 0.000520966
4 *192:8 0.00239144
5 *1398:I1 *1264:I 1.39839e-05
6 *1398:I1 *1467:D 2.33065e-05
7 *1398:I1 *1467:CLK 0.00119674
8 *1398:I1 *1470:I 5.62382e-05
9 *1398:I1 *243:21 0.000248178
10 *1398:I1 *244:39 5.78854e-06
11 *1398:I1 *289:99 0
12 *1398:I1 *308:20 0.000254487
13 *1398:I1 *340:18 0.000192308
14 *1398:I1 *340:37 0.0015114
15 *192:8 *1428:CLK 0.000234324
16 *192:8 *206:14 1.9678e-05
17 *192:8 *218:41 2.08301e-05
18 *192:8 *290:129 0.000150744
19 *192:8 *290:151 8.49208e-05
20 *192:8 *340:37 0.000231436
21 dac_p[1] *1398:I1 9.85004e-05
22 *1311:A2 *1398:I1 3.01487e-05
23 *1311:A2 *192:8 6.02974e-05
24 *1354:B *1398:I1 6.97781e-05
25 *1398:S *1398:I1 9.26477e-05
26 *1402:A2 *192:8 5.25883e-05
27 *1427:D *1398:I1 0.000121064
28 *1447:D *1398:I1 0.000166107
29 *109:24 *1398:I1 3.65687e-05
30 *110:14 *192:8 1.58836e-05
*RES
1 *1397:ZN *192:8 8.46 
2 *192:8 *1398:I1 29.16 
3 *192:8 *1400:B1 4.5 
*END

*D_NET *193 0.000750689
*CONN
*I *1400:A3 I *D gf180mcu_fd_sc_mcu7t5v0__oai32_4
*I *1399:ZN O *D gf180mcu_fd_sc_mcu7t5v0__oai22_4
*CAP
1 *1400:A3 0.000229972
2 *1399:ZN 0.000229972
3 *1400:A3 *208:85 3.325e-05
4 *1400:A3 *291:79 9.86969e-05
5 *1400:A3 *312:29 0
6 *1399:A1 *1400:A3 0.000158798
*RES
1 *1399:ZN *1400:A3 10.71 
*END

*D_NET *194 0.00172333
*CONN
*I *1402:A3 I *D gf180mcu_fd_sc_mcu7t5v0__nor3_1
*I *1401:ZN O *D gf180mcu_fd_sc_mcu7t5v0__aoi211_1
*CAP
1 *1402:A3 0.000411443
2 *1401:ZN 0.000411443
3 *1402:A3 *1407:B2 4.03439e-06
4 *1402:A3 *282:29 8.1517e-05
5 *1402:A3 *293:54 0.000166728
6 *1400:A1 *1402:A3 0
7 *108:14 *1402:A3 0.000351066
8 *108:27 *1402:A3 0.000297094
*RES
1 *1401:ZN *1402:A3 12.51 
*END

*D_NET *195 0.00597476
*CONN
*I *1404:A2 I *D gf180mcu_fd_sc_mcu7t5v0__oai21_1
*I *1402:ZN O *D gf180mcu_fd_sc_mcu7t5v0__nor3_1
*CAP
1 *1404:A2 0.000425109
2 *1402:ZN 0.000425109
3 *1404:A2 *1548:I 0.000422011
4 *1404:A2 *302:18 0.000315952
5 *1366:A2 *1404:A2 1.40873e-05
6 *1397:A1 *1404:A2 0.000703943
7 *1401:A2 *1404:A2 0.000720649
8 *1402:A1 *1404:A2 0.000720649
9 *1429:D *1404:A2 0.00211643
10 *97:14 *1404:A2 0.000110823
*RES
1 *1402:ZN *1404:A2 26.64 
*END

*D_NET *196 0.00562763
*CONN
*I *1406:A1 I *D gf180mcu_fd_sc_mcu7t5v0__and2_1
*I *1404:B I *D gf180mcu_fd_sc_mcu7t5v0__oai21_1
*I *1403:ZN O *D gf180mcu_fd_sc_mcu7t5v0__oai211_1
*CAP
1 *1406:A1 0.000105718
2 *1404:B 0.000259451
3 *1403:ZN 0.000453683
4 *196:10 0.000818851
5 *1406:A1 *289:99 0.00027566
6 *196:10 *1405:A1 3.07167e-05
7 *196:10 *1407:B2 9.04462e-05
8 *196:10 *1430:CLK 5.60661e-06
9 *1336:A1 *1404:B 0.000141683
10 *1336:A1 *196:10 0.000185923
11 *1503:I *1404:B 0
12 *1510:I *1404:B 0.000150744
13 *96:14 *196:10 0.000282733
14 *97:8 *1404:B 4.33758e-05
15 *104:12 *1404:B 0.000283705
16 *110:14 *1406:A1 0
17 *118:14 *196:10 0.00102865
18 *120:69 *1404:B 0.000614666
19 *120:69 *196:10 0.000856023
*RES
1 *1403:ZN *196:10 14.76 
2 *196:10 *1404:B 11.88 
3 *196:10 *1406:A1 9.81 
*END

*D_NET *197 0.00129489
*CONN
*I *1406:A2 I *D gf180mcu_fd_sc_mcu7t5v0__and2_1
*I *1405:ZN O *D gf180mcu_fd_sc_mcu7t5v0__oai21_1
*CAP
1 *1406:A2 8.06949e-05
2 *1405:ZN 8.06949e-05
3 *1406:A2 *400:I 0.000526155
4 *1430:D *1406:A2 2.19964e-05
5 *1511:I *1406:A2 0.000585344
*RES
1 *1405:ZN *1406:A2 19.71 
*END

*D_NET *198 0.00874204
*CONN
*I *1413:B1 I *D gf180mcu_fd_sc_mcu7t5v0__oai22_1
*I *1409:B1 I *D gf180mcu_fd_sc_mcu7t5v0__oai22_1
*I *1407:ZN O *D gf180mcu_fd_sc_mcu7t5v0__oai221_4
*CAP
1 *1413:B1 0
2 *1409:B1 0.000223315
3 *1407:ZN 0.00101595
4 *198:26 0.00123926
5 *1409:B1 *1409:B2 0.000449893
6 *1409:B1 *1412:B1 4.81323e-05
7 *1409:B1 *1413:B2 3.01487e-05
8 *198:26 *1300:B 0.00118859
9 *198:26 *1409:B2 0.000280861
10 *198:26 *1412:B1 1.31689e-06
11 *198:26 *1413:B2 0.000476294
12 *198:26 *1462:RN 0.000234202
13 *198:26 *1466:CLK 0.000606673
14 *198:26 *225:14 2.63227e-05
15 *198:26 *343:12 3.73774e-06
16 *1275:A1 *1409:B1 0.000207038
17 *1407:C *198:26 0.000202332
18 *1412:A2 *1409:B1 0.000209683
19 *1414:A2 *198:26 0.000303284
20 *1464:D *198:26 0.000139722
21 *123:52 *198:26 2.91017e-05
22 *127:12 *198:26 0.00182618
*RES
1 *1407:ZN *198:26 26.01 
2 *198:26 *1409:B1 15.93 
3 *198:26 *1413:B1 4.5 
*END

*D_NET *199 0.00217368
*CONN
*I *1409:B2 I *D gf180mcu_fd_sc_mcu7t5v0__oai22_1
*I *1408:ZN O *D gf180mcu_fd_sc_mcu7t5v0__oai31_1
*CAP
1 *1409:B2 0.000323402
2 *1408:ZN 0.000323402
3 *1409:B2 *1375:A3 2.19964e-05
4 *1409:B2 *296:116 7.35899e-05
5 *1408:B *1409:B2 0.000268865
6 *1409:B1 *1409:B2 0.000449893
7 *1413:A2 *1409:B2 1.46357e-05
8 *1414:A2 *1409:B2 0.000417039
9 *198:26 *1409:B2 0.000280861
*RES
1 *1408:ZN *1409:B2 21.6 
*END

*D_NET *200 0.00430687
*CONN
*I *1412:B1 I *D gf180mcu_fd_sc_mcu7t5v0__aoi22_1
*I *1410:ZN O *D gf180mcu_fd_sc_mcu7t5v0__nand4_1
*CAP
1 *1412:B1 0.000798747
2 *1410:ZN 0.000798747
3 *1412:B1 *1375:A2 3.53124e-05
4 *1412:B1 *1408:A1 0.000181242
5 *1412:B1 *1412:B2 6.04425e-05
6 *1412:B1 *1413:B2 4.15512e-05
7 *1412:B1 *1488:I 0.00145919
8 *1412:B1 *1529:I 0.000502462
9 *1412:B1 *344:56 0.000356942
10 *1296:A2 *1412:B1 1.0415e-05
11 *1297:A1 *1412:B1 0
12 *1409:B1 *1412:B1 4.81323e-05
13 *1466:D *1412:B1 1.23715e-05
14 *198:26 *1412:B1 1.31689e-06
*RES
1 *1410:ZN *1412:B1 17.01 
*END

*D_NET *201 0.00230826
*CONN
*I *1412:B2 I *D gf180mcu_fd_sc_mcu7t5v0__aoi22_1
*I *1411:Z O *D gf180mcu_fd_sc_mcu7t5v0__xor2_1
*CAP
1 *1412:B2 0.00048914
2 *1411:Z 0.00048914
3 *1412:B2 *380:I 3.91746e-05
4 *1412:B2 *1413:B2 0.000488975
5 *1412:B2 *344:27 2.98735e-05
6 *1412:B2 *344:31 2.69292e-05
7 *1412:B2 *344:56 1.20058e-05
8 *1300:A2 *1412:B2 0.000428111
9 *1412:A2 *1412:B2 0.000153283
10 *1412:B1 *1412:B2 6.04425e-05
11 *124:16 *1412:B2 9.11874e-05
*RES
1 *1411:Z *1412:B2 22.41 
*END

*D_NET *202 0.00313879
*CONN
*I *1413:B2 I *D gf180mcu_fd_sc_mcu7t5v0__oai22_1
*I *1412:ZN O *D gf180mcu_fd_sc_mcu7t5v0__aoi22_1
*CAP
1 *1413:B2 0.000896255
2 *1412:ZN 0.000896255
3 *1413:B2 *415:I 4.12809e-05
4 *1413:B2 *1408:A1 1.70119e-05
5 *1413:B2 *1412:A1 3.6263e-05
6 *1413:B2 *208:457 2.87447e-05
7 *1413:B2 *344:56 1.49295e-05
8 *1278:A2 *1413:B2 4.86449e-05
9 *1296:A2 *1413:B2 7.41813e-06
10 *1300:A1 *1413:B2 1.32067e-05
11 *1300:A2 *1413:B2 6.73549e-05
12 *1409:B1 *1413:B2 3.01487e-05
13 *1412:B1 *1413:B2 4.15512e-05
14 *1412:B2 *1413:B2 0.000488975
15 *127:12 *1413:B2 3.44608e-05
16 *198:26 *1413:B2 0.000476294
*RES
1 *1412:ZN *1413:B2 16.38 
*END

*D_NET *203 0.00448277
*CONN
*I *1415:A2 I *D gf180mcu_fd_sc_mcu7t5v0__aoi21_1
*I *1414:Z O *D gf180mcu_fd_sc_mcu7t5v0__or4_1
*CAP
1 *1415:A2 0.000895117
2 *1414:Z 0.000895117
3 *1415:A2 *1346:A1 0.00014767
4 *1415:A2 *1346:A2 0.000212959
5 *1415:A2 *1349:A2 1.5931e-05
6 *1415:A2 *1375:A3 1.63822e-05
7 *1415:A2 *1431:CLK 7.86261e-05
8 *1415:A2 *1466:CLK 9.49806e-05
9 *1415:A2 *211:52 4.1839e-05
10 *1415:A2 *310:16 0.000205529
11 *1415:A2 *344:27 4.25429e-05
12 *378:I *1415:A2 9.26862e-05
13 *1299:B *1415:A2 5.19953e-06
14 *1415:B *1415:A2 1.84368e-05
15 *1432:D *1415:A2 0.000293885
16 *1433:D *1415:A2 0.000400869
17 *1466:D *1415:A2 0.000281369
18 *101:16 *1415:A2 6.67196e-06
19 *123:65 *1415:A2 2.93938e-05
20 *131:12 *1415:A2 0.000660835
21 *166:12 *1415:A2 4.67324e-05
*RES
1 *1414:Z *1415:A2 25.92 
*END

*D_NET *204 0.00683187
*CONN
*I *1520:I I *D gf180mcu_fd_sc_mcu7t5v0__dlyb_1
*I *1329:A1 I *D gf180mcu_fd_sc_mcu7t5v0__nor4_4
*I *1427:Q O *D gf180mcu_fd_sc_mcu7t5v0__dffsnq_1
*CAP
1 *1520:I 0.000178255
2 *1329:A1 0.000678886
3 *1427:Q 0.000387656
4 *204:8 0.0012448
5 *1329:A1 *1480:I 8.35806e-05
6 *1329:A1 *208:123 0
7 *1329:A1 *229:51 0.00133587
8 *1520:I *1353:A1 0.00097763
9 *1520:I *229:51 0.00104866
10 *1321:A2 *1329:A1 6.01893e-05
11 *1350:B *1520:I 4.56848e-05
12 *1350:B *204:8 0.000403005
13 *1360:A2 *1520:I 5.0722e-05
14 *1360:A2 *204:8 0.000148172
15 *97:60 *1329:A1 2.31089e-05
16 *140:12 *1520:I 0.000164219
17 *170:26 *1520:I 1.4382e-06
*RES
1 *1427:Q *204:8 11.97 
2 *204:8 *1329:A1 14.85 
3 *204:8 *1520:I 12.78 
*END

*D_NET *205 0.00942655
*CONN
*I *1341:A2 I *D gf180mcu_fd_sc_mcu7t5v0__nor4_4
*I *1325:A2 I *D gf180mcu_fd_sc_mcu7t5v0__nor4_4
*I *1519:I I *D gf180mcu_fd_sc_mcu7t5v0__buf_2
*I *1428:Q O *D gf180mcu_fd_sc_mcu7t5v0__dffrnq_1
*CAP
1 *1341:A2 7.04036e-05
2 *1325:A2 0.000278649
3 *1519:I 0.000702296
4 *1428:Q 0
5 *205:25 0.00113212
6 *205:4 0.00148536
7 *1325:A2 *290:40 7.82711e-05
8 *1325:A2 *290:55 6.82913e-05
9 *1325:A2 *290:61 6.2083e-06
10 *1341:A2 *1329:A3 0.00049405
11 *1519:I *1477:I 4.77915e-05
12 *1519:I *240:23 2.258e-05
13 *1519:I *312:29 0.000249696
14 *205:25 *1321:A1 0.000308206
15 *205:25 *1329:A3 4.9566e-05
16 *205:25 *243:67 0.000103489
17 *205:25 *272:59 0.000627828
18 *1350:B *1519:I 0.000846526
19 *1357:A2 *205:25 0.00122076
20 *170:26 *1341:A2 0.000113797
21 *170:26 *205:25 0.00152066
*RES
1 *1428:Q *205:4 4.5 
2 *205:4 *1519:I 9.81 
3 *205:4 *205:25 18.63 
4 *205:25 *1325:A2 15.03 
5 *205:25 *1341:A2 5.85 
*END

*D_NET *206 0.0207346
*CONN
*I *1341:A4 I *D gf180mcu_fd_sc_mcu7t5v0__nor4_4
*I *1272:A4 I *D gf180mcu_fd_sc_mcu7t5v0__or4_2
*I *1336:A2 I *D gf180mcu_fd_sc_mcu7t5v0__nor2_1
*I *1249:I I *D gf180mcu_fd_sc_mcu7t5v0__inv_2
*I *1271:A2 I *D gf180mcu_fd_sc_mcu7t5v0__nor2_1
*I *1429:Q O *D gf180mcu_fd_sc_mcu7t5v0__dffrnq_2
*CAP
1 *1341:A4 0.000367189
2 *1272:A4 1.65633e-05
3 *1336:A2 0
4 *1249:I 0.000467816
5 *1271:A2 0.00184449
6 *1429:Q 0
7 *206:43 0.00108173
8 *206:22 0.0031434
9 *206:14 0.0016987
10 *206:6 0.00136434
11 *1249:I *400:I 0.000876939
12 *1249:I *1548:I 0.000464273
13 *1249:I *296:34 0
14 *1272:A4 *280:10 0.000125519
15 *1272:A4 *292:47 0.00015426
16 *1341:A4 *1337:A1 0
17 *1341:A4 *290:129 4.54378e-05
18 *1341:A4 *290:188 1.61995e-05
19 *206:14 *233:20 0.000285916
20 *206:14 *290:129 0.000177934
21 *206:14 *302:27 2.8764e-06
22 *206:22 *1265:I 0.00102299
23 *206:22 *1270:A2 0.000523924
24 *206:22 *230:41 0
25 *206:22 *233:20 0.000120409
26 *206:22 *280:10 0.000412514
27 *206:22 *280:31 3.61709e-05
28 *206:22 *292:47 0.000465019
29 *206:43 *1379:A1 0.000705808
30 *206:43 *296:34 0.000216633
31 *1325:A4 *1341:A4 3.58729e-05
32 *1336:A1 *1249:I 0.00146843
33 *1336:A1 *206:43 4.83522e-05
34 *1357:B *1271:A2 0
35 *1363:B *1249:I 0.000156812
36 *1363:B *206:22 0.000136667
37 *1366:A2 *206:14 0.000115232
38 *1366:A2 *206:43 8.13889e-05
39 *1372:B *206:43 0.000190306
40 *1402:A2 *206:14 0.000647941
41 *1511:I *1249:I 0.000168642
42 *86:18 *1271:A2 0.000438291
43 *86:18 *206:43 0.000141639
44 *97:8 *1249:I 0.000396255
45 *104:12 *1249:I 0.000173701
46 *108:14 *206:14 0.000226231
47 *110:14 *206:14 0.000218691
48 *122:20 *206:43 0.000204114
49 *177:24 *1341:A4 0.000133954
50 *177:24 *206:14 4.52764e-05
51 *187:22 *1271:A2 5.01024e-05
52 *192:8 *206:14 1.9678e-05
*RES
1 *1429:Q *206:6 9 
2 *206:6 *206:14 17.28 
3 *206:14 *206:22 11.25 
4 *206:22 *1271:A2 23.31 
5 *206:22 *206:43 14.49 
6 *206:43 *1249:I 20.16 
7 *206:43 *1336:A2 4.5 
8 *206:14 *1272:A4 9.45 
9 *206:6 *1341:A4 11.34 
*END

*D_NET *207 0.00655764
*CONN
*I *1518:I I *D gf180mcu_fd_sc_mcu7t5v0__buf_2
*I *1329:A3 I *D gf180mcu_fd_sc_mcu7t5v0__nor4_4
*I *1430:Q O *D gf180mcu_fd_sc_mcu7t5v0__dffsnq_1
*CAP
1 *1518:I 0.000386415
2 *1329:A3 0.000155984
3 *1430:Q 0.000150707
4 *207:12 0.000693106
5 *1329:A3 *1321:A1 0.000297517
6 *1329:A3 *243:67 0.000997576
7 *1329:A3 *266:20 0.000362293
8 *1518:I *374:I 0.000278898
9 *1518:I *266:20 6.22708e-05
10 *1518:I *290:10 0.000360446
11 *1518:I *336:31 0.00100223
12 *207:12 *1331:A1 4.34199e-06
13 *207:12 *266:20 0.000150744
14 *1341:A2 *1329:A3 0.00049405
15 *1365:B1 *207:12 4.54901e-05
16 *1371:B *1329:A3 9.49854e-05
17 *1371:B *207:12 2.16833e-05
18 *108:43 *1518:I 0.000439866
19 *108:43 *207:12 0.000497805
20 *170:26 *1329:A3 4.51807e-06
21 *172:22 *207:12 5.22248e-06
22 *177:24 *1518:I 1.92015e-06
23 *205:25 *1329:A3 4.9566e-05
*RES
1 *1430:Q *207:12 15.3 
2 *207:12 *1329:A3 8.37 
3 *207:12 *1518:I 17.73 
*END

*D_NET *208 0.0718088
*CONN
*I *428:I I *D gf180mcu_fd_sc_mcu7t5v0__antenna
*I *415:I I *D gf180mcu_fd_sc_mcu7t5v0__antenna
*I *1472:I I *D gf180mcu_fd_sc_mcu7t5v0__clkbuf_8
*I *1484:I I *D gf180mcu_fd_sc_mcu7t5v0__clkbuf_8
*I *1471:I I *D gf180mcu_fd_sc_mcu7t5v0__clkbuf_8
*I *414:I I *D gf180mcu_fd_sc_mcu7t5v0__antenna
*I *427:I I *D gf180mcu_fd_sc_mcu7t5v0__antenna
*I *1485:I I *D gf180mcu_fd_sc_mcu7t5v0__clkbuf_8
*I *1482:I I *D gf180mcu_fd_sc_mcu7t5v0__clkbuf_8
*I *1473:I I *D gf180mcu_fd_sc_mcu7t5v0__clkbuf_8
*I *416:I I *D gf180mcu_fd_sc_mcu7t5v0__antenna
*I *419:I I *D gf180mcu_fd_sc_mcu7t5v0__antenna
*I *1476:I I *D gf180mcu_fd_sc_mcu7t5v0__clkbuf_8
*I *418:I I *D gf180mcu_fd_sc_mcu7t5v0__antenna
*I *1474:I I *D gf180mcu_fd_sc_mcu7t5v0__clkbuf_8
*I *417:I I *D gf180mcu_fd_sc_mcu7t5v0__antenna
*I *1475:I I *D gf180mcu_fd_sc_mcu7t5v0__clkbuf_8
*I *412:I I *D gf180mcu_fd_sc_mcu7t5v0__antenna
*I *413:I I *D gf180mcu_fd_sc_mcu7t5v0__antenna
*I *421:I I *D gf180mcu_fd_sc_mcu7t5v0__antenna
*I *426:I I *D gf180mcu_fd_sc_mcu7t5v0__antenna
*I *423:I I *D gf180mcu_fd_sc_mcu7t5v0__antenna
*I *1483:I I *D gf180mcu_fd_sc_mcu7t5v0__clkbuf_8
*I *424:I I *D gf180mcu_fd_sc_mcu7t5v0__antenna
*I *1481:I I *D gf180mcu_fd_sc_mcu7t5v0__clkbuf_8
*I *425:I I *D gf180mcu_fd_sc_mcu7t5v0__antenna
*I *1480:I I *D gf180mcu_fd_sc_mcu7t5v0__clkbuf_8
*I *420:I I *D gf180mcu_fd_sc_mcu7t5v0__antenna
*I *1477:I I *D gf180mcu_fd_sc_mcu7t5v0__clkbuf_8
*I *422:I I *D gf180mcu_fd_sc_mcu7t5v0__antenna
*I *1470:I I *D gf180mcu_fd_sc_mcu7t5v0__clkbuf_8
*I *1479:I I *D gf180mcu_fd_sc_mcu7t5v0__clkbuf_8
*I *1478:I I *D gf180mcu_fd_sc_mcu7t5v0__clkbuf_8
*I *1469:Z O *D gf180mcu_fd_sc_mcu7t5v0__clkbuf_16
*CAP
1 *428:I 0
2 *415:I 0.00112976
3 *1472:I 0
4 *1484:I 0.000333395
5 *1471:I 4.51378e-05
6 *414:I 0.00109767
7 *427:I 2.82567e-05
8 *1485:I 0
9 *1482:I 1.93266e-05
10 *1473:I 0.000262598
11 *416:I 0
12 *419:I 0.0010093
13 *1476:I 0.000222182
14 *418:I 4.06241e-05
15 *1474:I 0.000356349
16 *417:I 0.000105259
17 *1475:I 0.000467465
18 *412:I 0.000349788
19 *413:I 3.29735e-05
20 *421:I 0.00043261
21 *426:I 0
22 *423:I 0.000245622
23 *1483:I 0
24 *424:I 0.000971063
25 *1481:I 0.000183594
26 *425:I 0
27 *1480:I 0.000651082
28 *420:I 0
29 *1477:I 0.000208334
30 *422:I 4.01137e-05
31 *1470:I 0.000762521
32 *1479:I 0.000511557
33 *1478:I 0.000650633
34 *1469:Z 0.000742804
35 *208:457 0.00169399
36 *208:401 0.00129322
37 *208:399 0.000719592
38 *208:397 0.00138633
39 *208:385 0.000875946
40 *208:371 0.000663272
41 *208:303 0.000262806
42 *208:301 0.0013882
43 *208:279 0.00110853
44 *208:267 0.00111439
45 *208:265 0.00110871
46 *208:251 0.00155232
47 *208:249 0.000730959
48 *208:241 0.00111896
49 *208:229 0.000782641
50 *208:215 0.000725119
51 *208:205 0.000387626
52 *208:151 0.00145359
53 *208:147 0.000868422
54 *208:139 0.00102702
55 *208:135 0.00094526
56 *208:131 0.000608284
57 *208:123 0.00134721
58 *208:107 0.00212288
59 *208:87 0.000231878
60 *208:85 0.000993279
61 *208:69 0.000887108
62 *208:23 0.0014279
63 *208:21 0.00132402
64 *208:19 0.0016447
65 *208:15 0.0021146
66 *208:11 0.00121068
67 *412:I *429:I 9.60789e-07
68 *412:I *1344:A1 2.09515e-05
69 *412:I *270:10 0.000153424
70 *412:I *270:37 5.19401e-05
71 *412:I *274:155 6.51749e-05
72 *412:I *338:28 0
73 *414:I *1280:A1 0.000149396
74 *414:I *1281:A1 8.66361e-05
75 *414:I *1460:CLK 4.99437e-05
76 *414:I *239:97 0.000260676
77 *414:I *296:116 6.43629e-05
78 *415:I *1279:A2 6.07757e-05
79 *415:I *1411:A2 3.54939e-05
80 *415:I *211:52 3.60134e-05
81 *415:I *226:12 0.000298226
82 *415:I *310:16 6.5543e-05
83 *417:I *241:111 0.00015827
84 *418:I *276:203 0.000185029
85 *418:I *296:116 0.00021344
86 *419:I *354:I 1.35476e-05
87 *419:I *444:I 8.37322e-05
88 *419:I *1355:A1 2.1573e-06
89 *419:I *1355:A2 4.72542e-05
90 *419:I *1492:I 0
91 *419:I *248:71 0
92 *419:I *272:78 0
93 *419:I *272:186 6.56183e-05
94 *421:I *1323:A1 0.000344807
95 *421:I *334:14 6.83079e-05
96 *421:I *335:12 0
97 *422:I *1428:CLK 0
98 *422:I *1572:I 6.42054e-08
99 *423:I *267:18 4.6613e-06
100 *423:I *334:24 3.67623e-05
101 *424:I *404:I 1.19696e-05
102 *424:I *1314:A1 4.19285e-05
103 *424:I *1387:I1 0.000150396
104 *424:I *1496:I 4.07469e-05
105 *424:I *232:56 0.000239164
106 *424:I *241:88 1.43104e-05
107 *424:I *274:159 1.0942e-05
108 *424:I *289:14 0.000118847
109 *424:I *332:40 9.27863e-05
110 *427:I *231:16 1.53162e-05
111 *1470:I *1264:I 5.78854e-06
112 *1470:I *1361:A2 0
113 *1470:I *1373:B 1.97376e-05
114 *1470:I *1549:I 5.04431e-05
115 *1470:I *244:39 6.41229e-05
116 *1470:I *289:99 3.58674e-05
117 *1470:I *302:27 1.17652e-05
118 *1471:I *1465:RN 6.28596e-05
119 *1471:I *288:20 7.4587e-06
120 *1473:I *1530:I 2.12898e-05
121 *1473:I *274:155 0.000337381
122 *1474:I *1394:I0 0.00037458
123 *1474:I *1424:CLK 0
124 *1474:I *323:16 4.43027e-05
125 *1475:I *350:I 0
126 *1475:I *358:I 0.000112785
127 *1475:I *1342:B 0.000153773
128 *1475:I *274:114 0
129 *1475:I *339:12 0.000153724
130 *1476:I *1492:I 2.14264e-05
131 *1476:I *276:192 0
132 *1476:I *276:203 2.23791e-05
133 *1476:I *296:116 3.42798e-05
134 *1477:I *240:23 0
135 *1477:I *312:29 0.000199734
136 *1478:I *1449:RN 5.98761e-07
137 *1478:I *230:41 0.000240928
138 *1478:I *265:38 3.82204e-05
139 *1478:I *299:17 1.42256e-05
140 *1479:I *1270:A1 7.62825e-05
141 *1479:I *1548:I 0.000142755
142 *1479:I *289:99 0.000355549
143 *1480:I *1399:A2 8.50947e-05
144 *1480:I *229:51 0
145 *1480:I *291:18 5.51506e-05
146 *1481:I *1437:RN 0
147 *1481:I *289:14 9.08681e-05
148 *1481:I *332:40 1.99931e-05
149 *1482:I *1362:A2 3.22348e-05
150 *1482:I *1437:RN 1.17725e-05
151 *1484:I *1465:RN 3.70055e-05
152 *208:11 *229:72 0
153 *208:11 *229:83 0
154 *208:11 *276:14 0.000423929
155 *208:11 *276:20 3.6049e-05
156 *208:11 *343:12 5.46027e-05
157 *208:15 *1376:A2 0.000190381
158 *208:15 *1403:A1 1.54455e-05
159 *208:15 *1515:I 2.69246e-05
160 *208:15 *231:22 1.61288e-05
161 *208:15 *276:20 5.60857e-05
162 *208:15 *276:147 0.000128655
163 *208:15 *343:12 9.43763e-05
164 *208:19 *1376:A2 0
165 *208:19 *1405:A1 5.61618e-06
166 *208:19 *1428:CLK 0.000166423
167 *208:19 *1515:I 5.98761e-07
168 *208:19 *1572:I 6.49999e-05
169 *208:19 *276:46 0.000289473
170 *208:19 *293:22 0.000136012
171 *208:21 *230:41 0.000186661
172 *208:21 *272:59 0
173 *208:23 *230:41 0.000132335
174 *208:69 *230:41 0.00010015
175 *208:69 *272:59 0
176 *208:85 *1349:A1 0.000165303
177 *208:85 *1572:I 0.000258904
178 *208:85 *230:41 0.000490382
179 *208:85 *240:23 0
180 *208:85 *272:59 0
181 *208:85 *312:29 0.000182278
182 *208:87 *312:29 3.81771e-05
183 *208:107 *272:59 0.000256651
184 *208:123 *1399:A2 2.65448e-05
185 *208:123 *230:41 0.000498155
186 *208:123 *312:29 0
187 *208:123 *335:49 0.00012946
188 *208:131 *1362:A2 0.000151427
189 *208:131 *1437:RN 4.15093e-05
190 *208:147 *1318:B 9.3226e-06
191 *208:147 *1322:B 0
192 *208:147 *267:18 9.60638e-05
193 *208:151 *1318:B 8.8619e-05
194 *208:151 *267:18 0.000440325
195 *208:205 *1323:A1 0
196 *208:205 *241:88 7.20436e-05
197 *208:205 *334:24 0
198 *208:215 *241:88 0.000143853
199 *208:229 *241:88 9.56842e-05
200 *208:241 *450:I 0.00010515
201 *208:241 *241:88 0.000373303
202 *208:241 *241:111 0.000158514
203 *208:249 *1391:I0 9.12715e-05
204 *208:249 *274:155 0.000210376
205 *208:251 *1335:A1 0.000111294
206 *208:251 *1531:I 0.000172919
207 *208:251 *1532:I 5.53565e-07
208 *208:251 *270:10 6.72564e-05
209 *208:251 *274:155 0.000168434
210 *208:265 *1319:A1 0.000352142
211 *208:279 *350:I 0
212 *208:279 *1392:I0 1.45377e-05
213 *208:279 *1394:I0 0.000202051
214 *208:279 *339:10 0.000229045
215 *208:279 *339:12 0.000233101
216 *208:301 *1319:A1 0.000115028
217 *208:301 *272:78 0
218 *208:371 *1290:A2 0.000205659
219 *208:371 *1515:I 6.76093e-06
220 *208:371 *231:22 0
221 *208:371 *293:22 1.478e-05
222 *208:385 *1290:A2 8.003e-05
223 *208:385 *224:12 0.000109178
224 *208:385 *224:19 2.09673e-05
225 *208:397 *1601:I 0.000273255
226 *208:397 *231:16 0.000280571
227 *208:399 *376:I 2.0903e-05
228 *208:399 *1460:CLK 4.93866e-05
229 *208:399 *288:20 6.96817e-05
230 *208:401 *1460:CLK 2.89264e-05
231 *208:401 *288:20 3.2607e-05
232 *208:457 *1460:CLK 1.08269e-05
233 *208:457 *341:14 0
234 *208:457 *344:27 7.32818e-06
235 dac_p[1] *1470:I 1.17725e-05
236 dac_p[1] *1478:I 0.00010715
237 dac_p[1] *208:21 4.48833e-05
238 dac_p[1] *208:23 9.52244e-05
239 dac_p[5] *1478:I 9.19194e-05
240 *382:I *415:I 0.0002249
241 *385:I *419:I 0
242 *390:I *419:I 5.10405e-06
243 *398:I *414:I 0.000262619
244 *1282:A2 *415:I 6.22571e-05
245 *1297:A1 *415:I 0
246 *1299:B *415:I 0.000347925
247 *1300:A2 *208:457 9.50367e-05
248 *1313:A2 *1480:I 1.50471e-05
249 *1320:A2 *208:151 2.37695e-05
250 *1320:B *423:I 1.03727e-05
251 *1321:A2 *208:123 1.86887e-06
252 *1324:B *417:I 0.00015827
253 *1324:B *208:205 2.37216e-05
254 *1324:B *208:215 5.64086e-05
255 *1324:B *208:229 0.000253381
256 *1324:B *208:241 0.000859756
257 *1328:A2 *208:123 0
258 *1328:A2 *208:135 0.000342213
259 *1328:B *208:123 0
260 *1328:B *208:135 6.34448e-05
261 *1328:B *208:205 5.04358e-06
262 *1329:A1 *1480:I 8.35806e-05
263 *1329:A1 *208:123 0
264 *1329:A4 *208:123 0.000198514
265 *1343:A2 *208:11 1.19471e-05
266 *1359:B *208:123 0.000249411
267 *1359:B *208:135 0
268 *1363:B *1479:I 0.0001424
269 *1369:A2 *208:385 0.000103133
270 *1377:A2 *208:397 0.000514489
271 *1377:A3 *208:385 6.92991e-06
272 *1383:A3 *414:I 5.54359e-05
273 *1384:A1 *414:I 4.71481e-05
274 *1397:A2 *208:19 0
275 *1398:I1 *1470:I 5.62382e-05
276 *1400:A3 *208:85 3.325e-05
277 *1401:A2 *422:I 7.20334e-05
278 *1401:A2 *208:19 5.46056e-06
279 *1402:A2 *208:19 0.000181279
280 *1403:B *208:11 8.56318e-05
281 *1405:B *208:19 3.61281e-05
282 *1413:B2 *415:I 4.12809e-05
283 *1413:B2 *208:457 2.87447e-05
284 *1422:D *1473:I 0.00019364
285 *1422:D *208:249 0.000241817
286 *1424:D *1474:I 0
287 *1429:D *208:19 0.000121555
288 *1432:D *415:I 9.05452e-05
289 *1439:D *423:I 2.38983e-05
290 *1439:D *208:135 0
291 *1444:D *412:I 2.42152e-05
292 *1462:D *1471:I 0
293 *1462:D *1484:I 0.000316833
294 *1463:D *1475:I 2.96638e-06
295 *1466:D *208:457 0.000281152
296 *1501:I *1470:I 3.58729e-05
297 *1502:I *412:I 0.000145379
298 *1506:I *208:11 7.01087e-05
299 *1507:I *1480:I 3.58674e-05
300 *1511:I *208:19 4.37435e-05
301 *1519:I *1477:I 4.77915e-05
302 *1546:I *1480:I 8.90195e-05
303 *4:30 *427:I 3.7795e-05
304 *4:30 *208:371 5.29728e-05
305 *4:30 *208:385 0.000175318
306 *4:30 *208:397 0.00019935
307 *94:54 *208:107 0.000123968
308 *95:16 *208:123 2.44668e-07
309 *99:12 *415:I 3.43888e-05
310 *111:28 *414:I 7.23958e-05
311 *118:14 *208:11 3.34748e-05
312 *118:14 *208:19 1.36825e-05
313 *121:24 *415:I 3.21801e-05
314 *123:16 *208:15 7.9857e-05
315 *123:16 *208:19 2.84412e-06
316 *123:65 *415:I 0
317 *124:16 *414:I 5.04358e-06
318 *124:16 *208:399 9.9513e-05
319 *124:16 *208:401 5.46105e-05
320 *124:16 *208:457 5.53183e-05
321 *126:28 *414:I 1.09332e-05
322 *127:12 *415:I 9.93243e-05
323 *127:12 *208:457 6.08177e-05
324 *159:41 *208:11 1.00671e-05
325 *168:35 *415:I 0.000221831
326 *172:22 *419:I 0.00013187
327 *172:22 *208:265 0.00103656
328 *172:22 *208:301 0.000555732
329 *172:57 *419:I 8.59953e-05
330 *191:34 *414:I 0.000204353
*RES
1 *1469:Z *208:11 14.22 
2 *208:11 *208:15 8.01 
3 *208:15 *208:19 12.87 
4 *208:19 *208:21 2.07 
5 *208:21 *208:23 1.89 
6 *208:23 *1478:I 13.14 
7 *208:23 *1479:I 13.41 
8 *208:21 *1470:I 13.95 
9 *208:19 *208:69 0.81 
10 *208:69 *422:I 9.45 
11 *208:69 *208:85 11.16 
12 *208:85 *208:87 0.27 
13 *208:87 *1477:I 6.03 
14 *208:87 *420:I 4.5 
15 *208:85 *208:107 10.89 
16 *208:107 *1480:I 8.73 
17 *208:107 *208:123 17.64 
18 *208:123 *425:I 4.5 
19 *208:123 *208:131 0.99 
20 *208:131 *208:135 7.83 
21 *208:135 *208:139 5.67 
22 *208:139 *208:147 11.7 
23 *208:147 *208:151 7.47 
24 *208:151 *1481:I 10.26 
25 *208:151 *424:I 15.75 
26 *208:147 *1483:I 4.5 
27 *208:139 *423:I 15.03 
28 *208:135 *208:205 6.3 
29 *208:205 *426:I 4.5 
30 *208:205 *208:215 1.44 
31 *208:215 *421:I 16.47 
32 *208:215 *208:229 1.71 
33 *208:229 *413:I 4.95 
34 *208:229 *208:241 10.71 
35 *208:241 *208:249 11.7 
36 *208:249 *208:251 3.51 
37 *208:251 *412:I 11.61 
38 *208:251 *208:265 11.07 
39 *208:265 *208:267 4.5 
40 *208:267 *1475:I 11.97 
41 *208:267 *208:279 4.59 
42 *208:279 *417:I 10.17 
43 *208:279 *1474:I 11.79 
44 *208:265 *208:301 3.69 
45 *208:301 *208:303 4.5 
46 *208:303 *418:I 10.17 
47 *208:303 *1476:I 10.44 
48 *208:301 *419:I 19.62 
49 *208:249 *416:I 9 
50 *208:241 *1473:I 11.43 
51 *208:131 *1482:I 4.77 
52 *208:15 *208:371 2.79 
53 *208:371 *1485:I 4.5 
54 *208:371 *208:385 11.52 
55 *208:385 *427:I 4.77 
56 *208:385 *208:397 10.17 
57 *208:397 *208:399 1.71 
58 *208:399 *208:401 0.99 
59 *208:401 *414:I 25.92 
60 *208:401 *1471:I 9.45 
61 *208:399 *1484:I 11.7 
62 *208:397 *208:457 8.1 
63 *208:457 *1472:I 4.5 
64 *208:457 *415:I 31.95 
65 *208:11 *428:I 9 
*END

*D_NET *209 0.01022
*CONN
*I *1426:CLK I *D gf180mcu_fd_sc_mcu7t5v0__dffrnq_1
*I *1456:CLK I *D gf180mcu_fd_sc_mcu7t5v0__dffrnq_1
*I *1448:CLK I *D gf180mcu_fd_sc_mcu7t5v0__dffrnq_1
*I *1459:CLK I *D gf180mcu_fd_sc_mcu7t5v0__dffsnq_1
*I *1470:Z O *D gf180mcu_fd_sc_mcu7t5v0__clkbuf_8
*CAP
1 *1426:CLK 0.000409126
2 *1456:CLK 0
3 *1448:CLK 0.000460037
4 *1459:CLK 0.000215641
5 *1470:Z 0.000442244
6 *209:25 0.000501191
7 *209:23 0.000479643
8 *209:6 0.000687248
9 *1426:CLK *1262:I 0.00041297
10 *1426:CLK *1304:A2 1.20217e-05
11 *1426:CLK *1598:I 0
12 *1426:CLK *241:6 0.000122695
13 *1448:CLK *1262:I 0
14 *1448:CLK *1271:A1 0.000407545
15 *1448:CLK *1575:I 6.17899e-06
16 *1448:CLK *265:38 0.00013442
17 *1448:CLK *281:35 1.23715e-05
18 *1448:CLK *281:43 0
19 *1459:CLK *1304:A1 0.000212085
20 *1459:CLK *1573:I 0.000128374
21 *209:6 *1361:A1 1.31479e-05
22 *209:6 *1448:RN 4.68887e-05
23 *209:6 *1575:I 3.70043e-05
24 *209:6 *243:8 0.000134369
25 *209:23 *1271:A1 0.000646139
26 *209:25 *1271:A1 0.000338523
27 dac_p[4] *1448:CLK 0.000873382
28 *399:I *1459:CLK 6.63099e-05
29 *399:I *209:6 0.000148353
30 *1351:B *1448:CLK 0.000388375
31 *1354:B *1448:CLK 0.000816592
32 *1354:B *209:23 0.000614837
33 *1354:B *209:25 0.000310437
34 *1363:B *209:6 0.000525319
35 *1426:D *1426:CLK 5.77401e-05
36 *1426:D *1459:CLK 2.8764e-06
37 *1426:D *209:6 2.1573e-06
38 *1446:D *1448:CLK 5.91855e-05
39 *1447:D *1459:CLK 0.000455766
40 *1456:D *1426:CLK 3.01487e-05
41 *47:8 *1459:CLK 5.78854e-06
42 *47:22 *1448:CLK 0
43 *134:26 *1426:CLK 2.84401e-06
*RES
1 *1470:Z *209:6 8.19 
2 *209:6 *1459:CLK 16.02 
3 *209:6 *209:23 6.21 
4 *209:23 *209:25 0.99 
5 *209:25 *1448:CLK 15.3 
6 *209:25 *1456:CLK 9 
7 *209:23 *1426:CLK 11.88 
*END

*D_NET *210 0.00762062
*CONN
*I *1500:I I *D gf180mcu_fd_sc_mcu7t5v0__clkbuf_2
*I *1458:CLK I *D gf180mcu_fd_sc_mcu7t5v0__dffrnq_1
*I *1457:CLK I *D gf180mcu_fd_sc_mcu7t5v0__dffsnq_1
*I *1461:CLK I *D gf180mcu_fd_sc_mcu7t5v0__dffrnq_1
*I *1471:Z O *D gf180mcu_fd_sc_mcu7t5v0__clkbuf_8
*CAP
1 *1500:I 0
2 *1458:CLK 0.000387508
3 *1457:CLK 0
4 *1461:CLK 8.09667e-05
5 *1471:Z 9.43813e-06
6 *210:23 0.00131151
7 *210:17 0.00126836
8 *210:6 0.000434764
9 *210:6 *1460:CLK 3.55118e-05
10 *210:17 *1381:A1 0.000449922
11 *210:17 *288:32 0.000841561
12 *210:17 *288:34 0.000335888
13 *210:17 *341:14 4.48171e-06
14 *210:23 *1381:A1 0.000164916
15 *210:23 *1566:I 1.0415e-05
16 *210:23 *1567:I 0
17 dac_n[5] *210:23 6.2006e-05
18 dac_n[6] *1458:CLK 0.000174706
19 dac_n[6] *210:23 0.000543665
20 *1383:A1 *1461:CLK 0.000476655
21 *1383:A1 *210:6 6.83517e-05
22 *1383:A3 *1461:CLK 0.000182865
23 *1383:A3 *210:6 2.36914e-05
24 *1457:D *1458:CLK 0.000141706
25 *86:18 *210:17 2.21374e-05
26 *86:18 *210:23 0.000121726
27 *100:31 *210:17 0.000467871
*RES
1 *1471:Z *210:6 4.77 
2 *210:6 *1461:CLK 5.85 
3 *210:6 *210:17 9.09 
4 *210:17 *210:23 11.16 
5 *210:23 *1457:CLK 4.5 
6 *210:23 *1458:CLK 7.83 
7 *210:17 *1500:I 9 
*END

*D_NET *211 0.0118244
*CONN
*I *1431:CLK I *D gf180mcu_fd_sc_mcu7t5v0__dffrnq_1
*I *1432:CLK I *D gf180mcu_fd_sc_mcu7t5v0__dffrnq_1
*I *1488:I I *D gf180mcu_fd_sc_mcu7t5v0__clkbuf_2
*I *1460:CLK I *D gf180mcu_fd_sc_mcu7t5v0__dffrnq_1
*I *1472:Z O *D gf180mcu_fd_sc_mcu7t5v0__clkbuf_8
*CAP
1 *1431:CLK 0.0003315
2 *1432:CLK 0
3 *1488:I 0.000484184
4 *1460:CLK 0.000854636
5 *1472:Z 0.00163563
6 *211:52 0.000628307
7 *1431:CLK *1300:B 0.00019681
8 *1431:CLK *271:8 0.000342793
9 *1431:CLK *310:16 5.47398e-05
10 *1460:CLK *1280:A1 1.70264e-05
11 *1460:CLK *1601:I 9.82427e-05
12 *1460:CLK *288:20 0.000101708
13 *1460:CLK *288:26 8.56177e-05
14 *1460:CLK *288:32 0.000167219
15 *1460:CLK *341:14 0.000127841
16 *1488:I *1299:A2 4.71159e-05
17 *1488:I *1375:A2 0.000173263
18 *1488:I *1375:A3 0.000221903
19 *1488:I *1408:A2 0.000212663
20 *1488:I *1410:A2 9.20698e-05
21 *1488:I *1529:I 0.000650379
22 *211:52 *1300:B 0.000404878
23 *211:52 *225:14 0
24 *211:52 *225:20 6.42329e-06
25 *414:I *1460:CLK 4.99437e-05
26 *415:I *211:52 3.60134e-05
27 *1273:A2 *1460:CLK 1.30288e-05
28 *1299:B *211:52 0.000219114
29 *1377:A2 *1460:CLK 9.82427e-05
30 *1383:A1 *1460:CLK 0.000143647
31 *1383:A3 *1460:CLK 0.000405532
32 *1408:A3 *1488:I 0.000114661
33 *1410:A3 *1488:I 0.000672564
34 *1412:B1 *1488:I 0.00145919
35 *1415:A2 *1431:CLK 7.86261e-05
36 *1415:A2 *211:52 4.1839e-05
37 *1466:D *1488:I 0.000124049
38 *1466:D *211:52 0.000702784
39 *100:31 *1460:CLK 0.000595137
40 *123:65 *211:52 1.0415e-05
41 *208:399 *1460:CLK 4.93866e-05
42 *208:401 *1460:CLK 2.89264e-05
43 *208:457 *1460:CLK 1.08269e-05
44 *210:6 *1460:CLK 3.55118e-05
*RES
1 *1472:Z *1460:CLK 25.29 
2 *1472:Z *1488:I 16.83 
3 *1472:Z *211:52 16.74 
4 *211:52 *1432:CLK 4.5 
5 *211:52 *1431:CLK 7.38 
*END

*D_NET *212 0.0146188
*CONN
*I *1441:CLK I *D gf180mcu_fd_sc_mcu7t5v0__dffrnq_1
*I *1489:I I *D gf180mcu_fd_sc_mcu7t5v0__clkbuf_2
*I *1443:CLK I *D gf180mcu_fd_sc_mcu7t5v0__dffrnq_1
*I *1425:CLK I *D gf180mcu_fd_sc_mcu7t5v0__dffrnq_1
*I *1421:CLK I *D gf180mcu_fd_sc_mcu7t5v0__dffrnq_1
*I *1473:Z O *D gf180mcu_fd_sc_mcu7t5v0__clkbuf_8
*CAP
1 *1441:CLK 0.000373352
2 *1489:I 0.000123753
3 *1443:CLK 0.000628049
4 *1425:CLK 0
5 *1421:CLK 7.24109e-05
6 *1473:Z 0.000373352
7 *212:28 0.000997632
8 *212:13 0.000503659
9 *212:4 0.00033024
10 *1421:CLK *322:16 0.000157856
11 *1441:CLK *355:I 0.000604143
12 *1441:CLK *1558:I 0.00028336
13 *1441:CLK *322:16 4.53942e-06
14 *1443:CLK *350:I 0.00134469
15 *1443:CLK *1340:A1 0.000116007
16 *1443:CLK *213:21 0.0001954
17 *1443:CLK *248:89 0
18 *1443:CLK *276:192 0.00127537
19 *1489:I *1323:A1 7.16775e-05
20 *1489:I *339:10 0.000722431
21 *212:13 *361:I 1.29004e-05
22 *212:13 *1422:CLK 0.000890806
23 *212:13 *1442:RN 0.000343808
24 *212:13 *322:16 0.000214917
25 *212:28 *350:I 0.000155583
26 *212:28 *1422:CLK 0.000620062
27 *212:28 *1442:RN 0.000589913
28 *212:28 *213:8 5.47655e-05
29 *212:28 *213:21 0.000762277
30 *212:28 *241:111 6.02091e-06
31 *212:28 *339:10 0.000147441
32 *1324:B *1421:CLK 0.000412358
33 *1324:B *212:13 0.000696931
34 *1340:A2 *1443:CLK 0.000415035
35 *1344:B *1443:CLK 5.3289e-05
36 *1421:D *1441:CLK 5.14931e-05
37 *1422:D *1441:CLK 9.85004e-05
38 *1441:D *1441:CLK 2.89427e-06
39 *1443:D *1443:CLK 7.64229e-06
40 *146:34 *1489:I 0.000747719
41 *146:34 *212:13 2.03387e-06
42 *146:34 *212:28 0.000154517
*RES
1 *1473:Z *212:4 4.5 
2 *212:4 *1421:CLK 5.67 
3 *212:4 *212:13 4.05 
4 *212:13 *1425:CLK 4.5 
5 *212:13 *212:28 13.41 
6 *212:28 *1443:CLK 20.88 
7 *212:28 *1489:I 7.11 
8 *1473:Z *1441:CLK 12.33 
*END

*D_NET *213 0.00664928
*CONN
*I *1423:CLK I *D gf180mcu_fd_sc_mcu7t5v0__dffrnq_1
*I *1490:I I *D gf180mcu_fd_sc_mcu7t5v0__clkbuf_2
*I *1442:CLK I *D gf180mcu_fd_sc_mcu7t5v0__dffrnq_1
*I *1422:CLK I *D gf180mcu_fd_sc_mcu7t5v0__dffrnq_1
*I *1474:Z O *D gf180mcu_fd_sc_mcu7t5v0__clkbuf_8
*CAP
1 *1423:CLK 0
2 *1490:I 0.000117065
3 *1442:CLK 2.38627e-05
4 *1422:CLK 0.000281546
5 *1474:Z 0.000195318
6 *213:21 0.000807293
7 *213:8 0.0011084
8 *213:6 0.000355802
9 *1422:CLK *1334:A1 0.000146905
10 *1422:CLK *322:16 0.00058555
11 *1442:CLK *406:I 7.20334e-05
12 *1442:CLK *276:192 3.77882e-05
13 *1490:I *406:I 7.84041e-05
14 *1490:I *276:192 2.53817e-05
15 *213:6 *241:111 5.01664e-05
16 *213:8 *241:111 3.44871e-05
17 *213:21 *350:I 7.12295e-06
18 *213:21 *451:I 8.40452e-05
19 *213:21 *248:89 0
20 *213:21 *337:29 0.000114808
21 *1443:CLK *213:21 0.0001954
22 *212:13 *1422:CLK 0.000890806
23 *212:28 *1422:CLK 0.000620062
24 *212:28 *213:8 5.47655e-05
25 *212:28 *213:21 0.000762277
*RES
1 *1474:Z *213:6 5.67 
2 *213:6 *213:8 0.99 
3 *213:8 *1422:CLK 8.73 
4 *213:8 *213:21 14.13 
5 *213:21 *1442:CLK 4.95 
6 *213:21 *1490:I 5.4 
7 *213:6 *1423:CLK 4.5 
*END

*D_NET *214 0.00838293
*CONN
*I *1433:CLK I *D gf180mcu_fd_sc_mcu7t5v0__dffrnq_1
*I *1434:CLK I *D gf180mcu_fd_sc_mcu7t5v0__dffrnq_1
*I *1491:I I *D gf180mcu_fd_sc_mcu7t5v0__clkbuf_2
*I *1466:CLK I *D gf180mcu_fd_sc_mcu7t5v0__dffrnq_1
*I *1475:Z O *D gf180mcu_fd_sc_mcu7t5v0__clkbuf_8
*CAP
1 *1433:CLK 0.000308459
2 *1434:CLK 0
3 *1491:I 0
4 *1466:CLK 0.000620979
5 *1475:Z 0.000739839
6 *214:41 0.000693012
7 *214:26 0.000503413
8 *1433:CLK *1274:A1 3.86257e-05
9 *1466:CLK *380:I 0.000112491
10 *1466:CLK *1375:A3 4.57498e-05
11 *1466:CLK *1601:I 0.00145131
12 *1466:CLK *272:125 2.11758e-05
13 *1466:CLK *344:27 1.4692e-05
14 *214:26 *1375:A3 0.000169837
15 *214:41 *1375:A3 0.000184678
16 *214:41 *225:14 0.000592627
17 *214:41 *226:12 0.000598905
18 *1298:A1 *1466:CLK 0.000158798
19 *1301:A2 *1466:CLK 0.000129287
20 *1301:B1 *1433:CLK 0.000831575
21 *1301:B1 *214:41 0.000162093
22 *1407:C *1466:CLK 1.0415e-05
23 *1415:A2 *1466:CLK 9.49806e-05
24 *1433:D *1433:CLK 2.63104e-05
25 *1434:D *1433:CLK 1.86887e-06
26 *1434:D *214:41 4.07734e-05
27 *123:45 *1466:CLK 6.02001e-05
28 *123:52 *1466:CLK 2.16833e-05
29 *170:26 *214:26 6.27834e-05
30 *170:26 *214:41 7.96892e-05
31 *198:26 *1466:CLK 0.000606673
*RES
1 *1475:Z *1466:CLK 24.57 
2 *1475:Z *214:26 5.67 
3 *214:26 *1491:I 4.5 
4 *214:26 *214:41 13.41 
5 *214:41 *1434:CLK 4.5 
6 *214:41 *1433:CLK 7.38 
*END

*D_NET *215 0.0072022
*CONN
*I *1424:CLK I *D gf180mcu_fd_sc_mcu7t5v0__dffrnq_1
*I *1492:I I *D gf180mcu_fd_sc_mcu7t5v0__clkbuf_2
*I *1463:CLK I *D gf180mcu_fd_sc_mcu7t5v0__dffrnq_1
*I *1444:CLK I *D gf180mcu_fd_sc_mcu7t5v0__dffrnq_1
*I *1476:Z O *D gf180mcu_fd_sc_mcu7t5v0__clkbuf_8
*CAP
1 *1424:CLK 0.000682124
2 *1492:I 0.000349411
3 *1463:CLK 0
4 *1444:CLK 0.0010588
5 *1476:Z 5.23948e-05
6 *215:29 0.000349411
7 *215:10 0.00125529
8 *215:8 0.000931008
9 *1424:CLK *1393:S 0
10 *1424:CLK *339:10 3.27047e-05
11 *1444:CLK *358:I 0.000410502
12 *1444:CLK *1342:B 0.00013682
13 *1444:CLK *276:192 3.77011e-05
14 *1444:CLK *339:12 2.7435e-05
15 *1492:I *367:I 1.98195e-05
16 *1492:I *1393:S 5.30888e-06
17 *1492:I *243:79 4.89196e-07
18 *215:8 *1393:S 0.000422398
19 *215:10 *339:10 1.63752e-05
20 *215:10 *339:12 6.49759e-06
21 *419:I *1492:I 0
22 *1343:A2 *1444:CLK 0.00089522
23 *1344:B *1444:CLK 3.70394e-05
24 *1444:D *1444:CLK 7.37195e-06
25 *1463:D *1444:CLK 0.00031931
26 *1463:D *1492:I 2.89427e-06
27 *1474:I *1424:CLK 0
28 *1476:I *1492:I 2.14264e-05
29 *146:34 *1424:CLK 2.61674e-05
30 *146:34 *1444:CLK 7.71613e-05
31 *146:34 *215:10 2.11175e-05
*RES
1 *1476:Z *215:8 10.17 
2 *215:8 *215:10 0.99 
3 *215:10 *1444:CLK 17.73 
4 *215:10 *215:29 4.5 
5 *215:29 *1463:CLK 4.5 
6 *215:29 *1492:I 7.02 
7 *215:8 *1424:CLK 12.33 
*END

*D_NET *216 0.00698683
*CONN
*I *1467:CLK I *D gf180mcu_fd_sc_mcu7t5v0__dffrnq_1
*I *1427:CLK I *D gf180mcu_fd_sc_mcu7t5v0__dffsnq_1
*I *1447:CLK I *D gf180mcu_fd_sc_mcu7t5v0__dffrnq_1
*I *1486:I I *D gf180mcu_fd_sc_mcu7t5v0__clkbuf_2
*I *1477:Z O *D gf180mcu_fd_sc_mcu7t5v0__clkbuf_8
*CAP
1 *1467:CLK 0.000186975
2 *1427:CLK 0
3 *1447:CLK 0.000288566
4 *1486:I 0.000512939
5 *1477:Z 0.000179067
6 *216:21 0.000541783
7 *216:8 0.000758247
8 *1447:CLK *269:10 0.000341006
9 *1447:CLK *340:18 0.000242198
10 *1447:CLK *340:37 0.000149458
11 *1360:A2 *216:21 9.97766e-05
12 *1398:I1 *1467:CLK 0.00119674
13 *1398:S *1486:I 2.28492e-05
14 *1400:A1 *1486:I 0.000587883
15 *1400:A1 *216:8 0.000392029
16 *1427:D *1467:CLK 0.00103714
17 *1427:D *1486:I 3.12451e-05
18 *1445:D *1486:I 5.94972e-05
19 *94:37 *1486:I 1.28932e-05
20 *94:37 *216:8 1.95322e-05
21 *168:26 *216:21 0.000327003
*RES
1 *1477:Z *216:8 6.12 
2 *216:8 *1486:I 7.11 
3 *216:8 *216:21 11.25 
4 *216:21 *1447:CLK 7.38 
5 *216:21 *1427:CLK 4.5 
6 *1486:I *1467:CLK 12.51 
*END

*D_NET *217 0.00572931
*CONN
*I *1487:I I *D gf180mcu_fd_sc_mcu7t5v0__clkbuf_2
*I *1450:CLK I *D gf180mcu_fd_sc_mcu7t5v0__dffrnq_1
*I *1449:CLK I *D gf180mcu_fd_sc_mcu7t5v0__dffrnq_1
*I *1451:CLK I *D gf180mcu_fd_sc_mcu7t5v0__dffrnq_1
*I *1478:Z O *D gf180mcu_fd_sc_mcu7t5v0__clkbuf_8
*CAP
1 *1487:I 0.000320394
2 *1450:CLK 0
3 *1449:CLK 0.000509947
4 *1451:CLK 7.93873e-05
5 *1478:Z 0
6 *217:17 0.000376374
7 *217:4 0.000266208
8 *1449:CLK *1360:A1 5.14272e-05
9 *1449:CLK *1579:I 0.000161398
10 *1449:CLK *273:61 1.64595e-05
11 *1449:CLK *281:29 0
12 *1451:CLK *247:24 0.000293893
13 *1451:CLK *273:61 1.64354e-05
14 *1487:I *391:I 5.78778e-06
15 *1487:I *1246:I 0.000109362
16 *1487:I *1579:I 0.000356005
17 *1487:I *1598:I 0.000352747
18 *1487:I *265:38 0.000167015
19 *217:17 *273:61 0.000152165
20 dac_p[3] *1487:I 0.000250846
21 dac_p[4] *1449:CLK 4.788e-05
22 dac_p[4] *1487:I 0.00034797
23 dac_p[7] *1449:CLK 0.000915504
24 dac_p[7] *1451:CLK 0.000433797
25 dac_p[7] *217:17 0.000118548
26 *359:I *1487:I 0.00016327
27 *1291:A2 *1487:I 0.000106281
28 *1360:A2 *1487:I 1.92304e-05
29 *1360:B *1449:CLK 9.09805e-05
*RES
1 *1478:Z *217:4 4.5 
2 *217:4 *1451:CLK 6.12 
3 *217:4 *217:17 1.98 
4 *217:17 *1449:CLK 7.11 
5 *217:17 *1450:CLK 4.5 
6 *1449:CLK *1487:I 22.41 
*END

*D_NET *218 0.00803782
*CONN
*I *1429:CLK I *D gf180mcu_fd_sc_mcu7t5v0__dffrnq_2
*I *1428:CLK I *D gf180mcu_fd_sc_mcu7t5v0__dffrnq_1
*I *1493:I I *D gf180mcu_fd_sc_mcu7t5v0__clkbuf_2
*I *1454:CLK I *D gf180mcu_fd_sc_mcu7t5v0__dffrnq_1
*I *1479:Z O *D gf180mcu_fd_sc_mcu7t5v0__clkbuf_8
*CAP
1 *1429:CLK 0
2 *1428:CLK 0.000485756
3 *1493:I 9.30528e-05
4 *1454:CLK 0.000207775
5 *1479:Z 0.000163833
6 *218:41 0.000546853
7 *218:8 0.000403564
8 *1428:CLK *1572:I 0.000213967
9 *1428:CLK *340:37 0.00113928
10 *1454:CLK *280:31 6.48048e-05
11 *1454:CLK *299:8 0.00033434
12 *1493:I *1265:I 0.000242152
13 *1493:I *1548:I 0.00101642
14 *1493:I *246:14 0.00010823
15 *1493:I *299:17 2.03496e-05
16 *218:8 *280:31 0.000112545
17 *422:I *1428:CLK 0
18 *1363:B *1454:CLK 6.89668e-06
19 *1363:B *1493:I 0.000478774
20 *1366:A2 *1454:CLK 0.000334785
21 *1366:A2 *218:8 0.000553231
22 *1366:A2 *218:41 0.000405367
23 *1401:A2 *1428:CLK 0
24 *1402:A2 *1428:CLK 9.67415e-05
25 *1402:A2 *218:41 9.04462e-05
26 *1428:D *1428:CLK 2.96178e-05
27 *1503:I *1454:CLK 6.20884e-05
28 *108:14 *218:41 0.000405367
29 *192:8 *1428:CLK 0.000234324
30 *192:8 *218:41 2.08301e-05
31 *208:19 *1428:CLK 0.000166423
*RES
1 *1479:Z *218:8 10.53 
2 *218:8 *1454:CLK 11.16 
3 *218:8 *1493:I 11.79 
4 *1479:Z *218:41 14.94 
5 *218:41 *1428:CLK 9.63 
6 *218:41 *1429:CLK 4.5 
*END

*D_NET *219 0.0131077
*CONN
*I *1437:CLK I *D gf180mcu_fd_sc_mcu7t5v0__dffrnq_1
*I *1494:I I *D gf180mcu_fd_sc_mcu7t5v0__clkbuf_2
*I *1436:CLK I *D gf180mcu_fd_sc_mcu7t5v0__dffrnq_1
*I *1445:CLK I *D gf180mcu_fd_sc_mcu7t5v0__dffrnq_1
*I *1446:CLK I *D gf180mcu_fd_sc_mcu7t5v0__dffrnq_1
*I *1480:Z O *D gf180mcu_fd_sc_mcu7t5v0__clkbuf_8
*CAP
1 *1437:CLK 4.11713e-05
2 *1494:I 0.000506805
3 *1436:CLK 0
4 *1445:CLK 0.000147404
5 *1446:CLK 0
6 *1480:Z 0.000453468
7 *219:18 0.000487695
8 *219:12 0.000365448
9 *219:10 0.000944259
10 *1437:CLK *1312:A2 0.000408152
11 *1437:CLK *277:63 0.000408152
12 *1445:CLK *1271:A1 0.000304729
13 *1445:CLK *290:151 0.000591145
14 *1494:I *1347:C 2.32176e-05
15 *1494:I *1467:RN 0
16 *1494:I *1592:I 0
17 *219:10 *1350:C 0.000733933
18 *219:10 *1353:C 0.000161499
19 *219:10 *241:62 0.000313912
20 *219:10 *243:36 4.64411e-05
21 *219:10 *243:67 4.52386e-06
22 *219:10 *277:63 0
23 *219:12 *1350:C 0.000257801
24 *219:18 *402:I 0.000100647
25 *219:18 *1271:A1 3.01487e-05
26 *219:18 *1304:A1 0.000385133
27 *219:18 *1350:C 0.00044709
28 *219:18 *276:46 5.32076e-05
29 *219:18 *340:18 0.000734722
30 *1347:B *219:10 0.00131245
31 *1436:D *1494:I 3.01487e-05
32 *1436:D *219:10 8.67164e-05
33 *1436:D *219:12 0.000288457
34 *1436:D *219:18 0.00222225
35 *1445:D *1445:CLK 0.000700259
36 *1445:D *219:18 0.000464606
37 *136:32 *1494:I 5.20752e-05
*RES
1 *1480:Z *219:10 14.76 
2 *219:10 *219:12 0.81 
3 *219:12 *219:18 11.88 
4 *219:18 *1446:CLK 4.5 
5 *219:18 *1445:CLK 7.11 
6 *219:12 *1436:CLK 9 
7 *219:10 *1494:I 11.61 
8 *1480:Z *1437:CLK 10.17 
*END

*D_NET *220 0.00763743
*CONN
*I *1495:I I *D gf180mcu_fd_sc_mcu7t5v0__clkbuf_2
*I *1416:CLK I *D gf180mcu_fd_sc_mcu7t5v0__dffrnq_1
*I *1435:CLK I *D gf180mcu_fd_sc_mcu7t5v0__dffrnq_1
*I *1417:CLK I *D gf180mcu_fd_sc_mcu7t5v0__dffrnq_1
*I *1481:Z O *D gf180mcu_fd_sc_mcu7t5v0__clkbuf_8
*CAP
1 *1495:I 0.000323689
2 *1416:CLK 0.000107735
3 *1435:CLK 0
4 *1417:CLK 0.000414403
5 *1481:Z 9.05876e-05
6 *220:17 0.000361622
7 *220:6 0.000435189
8 *1416:CLK *1386:S 0.000106297
9 *1416:CLK *269:65 0.000486059
10 *1416:CLK *289:14 0.000193098
11 *1495:I *1313:B 1.0415e-05
12 *1495:I *1327:A1 1.36798e-05
13 *220:6 *1436:RN 9.71361e-05
14 *220:6 *1437:RN 0.000487494
15 *220:17 *353:I 2.36954e-05
16 *220:17 *1386:S 0.00020488
17 *220:17 *1436:RN 1.50885e-05
18 *220:17 *241:62 2.33119e-05
19 *1303:A2 *1417:CLK 3.01487e-05
20 *1303:A2 *1495:I 5.39731e-05
21 *1306:A1 *1416:CLK 0.000298434
22 *1306:A1 *1417:CLK 0.000923189
23 *1306:A1 *220:6 9.85004e-05
24 *1306:A1 *220:17 0.00107151
25 *132:16 *1417:CLK 0.000923189
26 *132:16 *220:6 0.000844109
*RES
1 *1481:Z *220:6 6.93 
2 *220:6 *1417:CLK 7.11 
3 *220:6 *220:17 7.65 
4 *220:17 *1435:CLK 9 
5 *220:17 *1416:CLK 11.16 
6 *1417:CLK *1495:I 10.98 
*END

*D_NET *221 0.00786714
*CONN
*I *1496:I I *D gf180mcu_fd_sc_mcu7t5v0__clkbuf_2
*I *1440:CLK I *D gf180mcu_fd_sc_mcu7t5v0__dffrnq_1
*I *1439:CLK I *D gf180mcu_fd_sc_mcu7t5v0__dffrnq_1
*I *1438:CLK I *D gf180mcu_fd_sc_mcu7t5v0__dffrnq_1
*I *1482:Z O *D gf180mcu_fd_sc_mcu7t5v0__clkbuf_8
*CAP
1 *1496:I 0.00111865
2 *1440:CLK 0.000312487
3 *1439:CLK 0
4 *1438:CLK 0.000114709
5 *1482:Z 0.00111865
6 *221:13 0.0004291
7 *221:4 0.000231323
8 *1438:CLK *1437:RN 0.000236727
9 *1440:CLK *1437:RN 0.000388432
10 *1496:I *1314:A1 9.79925e-05
11 *1496:I *1387:S 0.000137511
12 *1496:I *1497:I 5.92385e-05
13 *1496:I *232:56 0
14 *1496:I *267:18 0.000537191
15 *1496:I *333:14 7.15323e-05
16 *1496:I *334:24 0.000134395
17 *221:13 *1437:RN 0.000161842
18 *424:I *1496:I 4.07469e-05
19 *1328:A2 *1438:CLK 1.86887e-06
20 *1328:A2 *1440:CLK 4.29972e-05
21 *1328:A2 *221:13 5.14056e-05
22 *1418:D *1496:I 0.00037349
23 *1438:D *1438:CLK 3.55118e-05
24 *1438:D *1496:I 4.44091e-05
25 *1439:D *1438:CLK 6.03144e-06
26 *1439:D *1496:I 0.000988636
27 *1440:D *1440:CLK 0
28 *1563:I *1496:I 2.36954e-05
29 *191:20 *1496:I 0.00110855
*RES
1 *1482:Z *221:4 4.5 
2 *221:4 *1438:CLK 6.03 
3 *221:4 *221:13 1.17 
4 *221:13 *1439:CLK 4.5 
5 *221:13 *1440:CLK 7.38 
6 *1482:Z *1496:I 30.06 
*END

*D_NET *222 0.00537326
*CONN
*I *1420:CLK I *D gf180mcu_fd_sc_mcu7t5v0__dffrnq_1
*I *1419:CLK I *D gf180mcu_fd_sc_mcu7t5v0__dffrnq_1
*I *1497:I I *D gf180mcu_fd_sc_mcu7t5v0__clkbuf_2
*I *1418:CLK I *D gf180mcu_fd_sc_mcu7t5v0__dffrnq_1
*I *1483:Z O *D gf180mcu_fd_sc_mcu7t5v0__clkbuf_8
*CAP
1 *1420:CLK 9.86609e-05
2 *1419:CLK 0
3 *1497:I 0.000237198
4 *1418:CLK 5.22351e-05
5 *1483:Z 0.000160785
6 *222:33 0.000232148
7 *222:18 0.000479235
8 *1418:CLK *1324:A1 0.000444513
9 *1497:I *392:I 3.06611e-05
10 *1497:I *334:24 2.62763e-05
11 *222:18 *1324:A1 5.23893e-05
12 *1324:B *1420:CLK 0.000532887
13 *1324:B *222:18 4.69216e-05
14 *1324:B *222:33 0.000373851
15 *1496:I *1497:I 5.92385e-05
16 *191:20 *1418:CLK 0.000101735
17 *191:20 *1420:CLK 0.000907439
18 *191:20 *222:18 0.00054994
19 *191:20 *222:33 0.000987149
*RES
1 *1483:Z *1418:CLK 10.17 
2 *1483:Z *222:18 6.03 
3 *222:18 *1497:I 14.85 
4 *222:18 *222:33 2.88 
5 *222:33 *1419:CLK 4.5 
6 *222:33 *1420:CLK 7.11 
*END

*D_NET *223 0.00985539
*CONN
*I *1464:CLK I *D gf180mcu_fd_sc_mcu7t5v0__dffrnq_1
*I *1452:CLK I *D gf180mcu_fd_sc_mcu7t5v0__dffrnq_1
*I *1453:CLK I *D gf180mcu_fd_sc_mcu7t5v0__dffrnq_1
*I *1465:CLK I *D gf180mcu_fd_sc_mcu7t5v0__dffrnq_1
*I *1498:I I *D gf180mcu_fd_sc_mcu7t5v0__clkbuf_2
*I *1484:Z O *D gf180mcu_fd_sc_mcu7t5v0__clkbuf_8
*CAP
1 *1464:CLK 0.000274728
2 *1452:CLK 0.000414869
3 *1453:CLK 3.91601e-05
4 *1465:CLK 0
5 *1498:I 0.000288565
6 *1484:Z 3.44897e-05
7 *223:36 0.000995791
8 *223:16 0.00033488
9 *223:12 0.000683743
10 *223:6 0.000404882
11 *1452:CLK *357:I 0.000154994
12 *1452:CLK *1256:I 3.12451e-05
13 *1452:CLK *273:10 4.06083e-05
14 *1464:CLK *305:8 0.00123001
15 *1464:CLK *305:12 4.21599e-05
16 *1498:I *1288:B 9.51606e-05
17 *1498:I *1465:D 4.6613e-06
18 *1498:I *1571:I 7.191e-07
19 *1498:I *265:14 0
20 *223:12 *1288:B 0.000205808
21 *223:12 *305:12 4.45215e-05
22 *223:16 *1288:B 0.000412061
23 *223:36 *1256:I 0.000153502
24 *223:36 *1465:D 4.6613e-06
25 *223:36 *1551:I 0.000612142
26 *223:36 *265:14 8.54857e-06
27 *223:36 *305:12 0.000759107
28 *1280:A3 *223:12 0.000229402
29 *1280:A3 *223:16 0.000403651
30 *1383:A1 *1464:CLK 0.00070242
31 *1383:A1 *223:12 0.000225322
32 *1461:D *1464:CLK 0.000402007
33 *1461:D *223:12 0.000436478
34 *1503:I *1452:CLK 0.000114927
35 *1503:I *223:36 3.73774e-06
36 *104:12 *1452:CLK 2.55621e-05
37 *165:6 *223:36 4.08662e-05
*RES
1 *1484:Z *223:6 4.77 
2 *223:6 *223:12 6.66 
3 *223:12 *223:16 5.67 
4 *223:16 *1498:I 6.57 
5 *223:16 *1465:CLK 4.5 
6 *223:12 *223:36 9.63 
7 *223:36 *1453:CLK 4.77 
8 *223:36 *1452:CLK 7.38 
9 *223:6 *1464:CLK 9.45 
*END

*D_NET *224 0.00613715
*CONN
*I *1430:CLK I *D gf180mcu_fd_sc_mcu7t5v0__dffsnq_1
*I *1462:CLK I *D gf180mcu_fd_sc_mcu7t5v0__dffrnq_1
*I *1499:I I *D gf180mcu_fd_sc_mcu7t5v0__clkbuf_2
*I *1455:CLK I *D gf180mcu_fd_sc_mcu7t5v0__dffrnq_1
*I *1485:Z O *D gf180mcu_fd_sc_mcu7t5v0__clkbuf_8
*CAP
1 *1430:CLK 0.00122815
2 *1462:CLK 0
3 *1499:I 0.000221268
4 *1455:CLK 0
5 *1485:Z 0.0014339
6 *224:19 0.000438237
7 *224:12 0.000422718
8 *1430:CLK *1403:A1 6.12687e-06
9 *1430:CLK *1407:B2 2.59858e-05
10 *1430:CLK *1509:I 7.191e-07
11 *1430:CLK *1525:I 5.06377e-06
12 *1430:CLK *231:22 0
13 *1430:CLK *276:20 1.78004e-05
14 *1430:CLK *282:29 5.66493e-05
15 *1430:CLK *287:10 0.000281601
16 *1499:I *248:65 0.000219241
17 *224:12 *231:16 0.000388648
18 *224:12 *231:22 3.55118e-05
19 *1292:B1 *1430:CLK 2.00468e-05
20 *1369:A2 *1499:I 2.9755e-05
21 *1369:A2 *224:12 0.000104776
22 *1376:A1 *224:19 0
23 *1377:A3 *224:19 9.67415e-05
24 *1407:A1 *224:12 0.000750109
25 *1407:B1 *1430:CLK 0
26 *1430:D *1430:CLK 0
27 *1455:D *1499:I 7.2172e-05
28 *1455:D *224:19 7.31876e-06
29 *1462:D *224:19 1.0415e-05
30 *1469:I *1430:CLK 0
31 *4:30 *224:12 0.000115656
32 *4:30 *224:19 1.27891e-05
33 *196:10 *1430:CLK 5.60661e-06
34 *208:385 *224:12 0.000109178
35 *208:385 *224:19 2.09673e-05
*RES
1 *1485:Z *224:12 16.74 
2 *224:12 *1455:CLK 4.5 
3 *224:12 *224:19 1.35 
4 *224:19 *1499:I 15.21 
5 *224:19 *1462:CLK 4.5 
6 *1485:Z *1430:CLK 16.02 
*END

*D_NET *225 0.0227869
*CONN
*I *1251:I I *D gf180mcu_fd_sc_mcu7t5v0__clkinv_1
*I *1277:A1 I *D gf180mcu_fd_sc_mcu7t5v0__nand3_1
*I *1411:A1 I *D gf180mcu_fd_sc_mcu7t5v0__xor2_1
*I *1410:A2 I *D gf180mcu_fd_sc_mcu7t5v0__nand4_1
*I *1281:A1 I *D gf180mcu_fd_sc_mcu7t5v0__nand4_1
*I *1280:A1 I *D gf180mcu_fd_sc_mcu7t5v0__nand3_1
*I *1431:Q O *D gf180mcu_fd_sc_mcu7t5v0__dffrnq_1
*CAP
1 *1251:I 0.0005573
2 *1277:A1 8.29633e-05
3 *1411:A1 0
4 *1410:A2 0.00172621
5 *1281:A1 0.000240856
6 *1280:A1 0.00114036
7 *1431:Q 0.000646417
8 *225:26 0.00197324
9 *225:20 0.00261497
10 *225:14 0.00116011
11 *225:8 0.00103546
12 *1251:I *1274:A1 3.65538e-05
13 *1251:I *1277:A3 0.000462793
14 *1251:I *1352:A1 0.000108794
15 *1251:I *1433:RN 0.000210765
16 *1251:I *1569:I 5.78287e-06
17 *1251:I *325:12 0.000690096
18 *1251:I *345:40 0
19 *1277:A1 *1277:A2 0.000115902
20 *1277:A1 *296:116 1.73058e-05
21 *1280:A1 *1288:B 9.06369e-06
22 *1280:A1 *1381:A1 9.09638e-05
23 *1280:A1 *1461:RN 7.90816e-05
24 *1280:A1 *1571:I 0.000159257
25 *1280:A1 *239:97 0.00033886
26 *1280:A1 *288:32 0.0013156
27 *1280:A1 *288:34 0.000305231
28 *1281:A1 *1465:RN 1.47439e-05
29 *1410:A2 *1408:A2 0.000121658
30 *1410:A2 *1529:I 8.49143e-05
31 *225:8 *1274:A1 0.000186391
32 *225:8 *228:16 0.000493034
33 *225:14 *1277:A2 3.64412e-05
34 *225:14 *1411:A2 0.000220304
35 *225:14 *226:12 0.000695044
36 *225:14 *296:116 0
37 *225:20 *1408:A2 1.29163e-05
38 *225:20 *344:56 2.0903e-05
39 *225:20 *344:60 7.39934e-06
40 *225:26 *298:86 0.000419726
41 *381:I *225:14 7.86626e-05
42 *414:I *1280:A1 0.000149396
43 *414:I *1281:A1 8.66361e-05
44 *443:I *1410:A2 8.31143e-06
45 *1276:A1 *1410:A2 8.67164e-05
46 *1280:A2 *1280:A1 0.00111928
47 *1283:A1 *225:8 0.000414473
48 *1283:A1 *225:14 1.36885e-05
49 *1283:A2 *1251:I 0
50 *1288:A2 *1280:A1 0.000261587
51 *1382:A1 *1281:A1 1.23558e-05
52 *1415:A1 *1251:I 0
53 *1460:CLK *1280:A1 1.70264e-05
54 *1464:D *1281:A1 0.000143643
55 *1464:D *225:8 2.08301e-05
56 *1464:D *225:14 0.00033936
57 *1464:D *225:20 2.12335e-05
58 *1488:I *1410:A2 9.20698e-05
59 *99:12 *1251:I 0.00087249
60 *100:54 *1281:A1 0.000205474
61 *116:20 *1281:A1 0.00014267
62 *170:26 *225:8 4.31565e-05
63 *191:34 *225:26 0.000595065
64 *198:26 *225:14 2.63227e-05
65 *211:52 *225:14 0
66 *211:52 *225:20 6.42329e-06
67 *214:41 *225:14 0.000592627
*RES
1 *1431:Q *225:8 10.89 
2 *225:8 *225:14 8.19 
3 *225:14 *225:20 5.76321 
4 *225:20 *225:26 11.1218 
5 *225:26 *1280:A1 24.0332 
6 *225:26 *1281:A1 15.3868 
7 *225:20 *1410:A2 19.7068 
8 *225:14 *1411:A1 9 
9 *225:8 *1277:A1 9.81 
10 *1431:Q *1251:I 24.03 
*END

*D_NET *226 0.0145551
*CONN
*I *1277:A2 I *D gf180mcu_fd_sc_mcu7t5v0__nand3_1
*I *1279:A2 I *D gf180mcu_fd_sc_mcu7t5v0__nor2_1
*I *1252:I I *D gf180mcu_fd_sc_mcu7t5v0__clkinv_1
*I *1411:A2 I *D gf180mcu_fd_sc_mcu7t5v0__xor2_1
*I *1432:Q O *D gf180mcu_fd_sc_mcu7t5v0__dffrnq_1
*CAP
1 *1277:A2 0.000135237
2 *1279:A2 0.000184093
3 *1252:I 0.0016724
4 *1411:A2 5.66591e-05
5 *1432:Q 0
6 *226:27 0.00229884
7 *226:12 0.00125588
8 *226:6 0.000892123
9 *1252:I *1381:A2 7.06099e-06
10 *1252:I *1457:SETN 0.000289888
11 *1252:I *1526:I 0.000480209
12 *1252:I *1528:I 4.36786e-06
13 *1252:I *1552:I 0.000555256
14 *1252:I *275:10 9.59812e-05
15 *1252:I *296:10 0
16 *1252:I *309:23 0.000967804
17 *1277:A2 *296:116 0
18 dac_n[9] *1252:I 0
19 *398:I *1252:I 3.43981e-05
20 *415:I *1279:A2 6.07757e-05
21 *415:I *1411:A2 3.54939e-05
22 *415:I *226:12 0.000298226
23 *1275:A1 *1252:I 0.000199353
24 *1276:A1 *1252:I 0
25 *1276:A2 *1252:I 9.47934e-05
26 *1277:A1 *1277:A2 0.000115902
27 *1282:A2 *1252:I 7.77436e-05
28 *1282:A2 *1279:A2 4.89321e-05
29 *1297:A1 *1252:I 0.000131393
30 *1297:A1 *1279:A2 0.000153265
31 *1297:A1 *226:27 0.000122572
32 *1297:A2 *1252:I 3.02991e-05
33 *1299:B *226:12 6.45797e-05
34 *1299:B *226:27 0.00149153
35 *1412:A2 *1252:I 0.000541352
36 *1412:A2 *1279:A2 0.000337632
37 *4:30 *1252:I 0
38 *99:12 *1279:A2 5.79737e-05
39 *99:14 *1279:A2 2.63343e-05
40 *101:16 *226:12 0
41 *112:17 *1252:I 0.000104237
42 *123:65 *226:27 8.18337e-05
43 *214:41 *226:12 0.000598905
44 *225:14 *1277:A2 3.64412e-05
45 *225:14 *1411:A2 0.000220304
46 *225:14 *226:12 0.000695044
*RES
1 *1432:Q *226:6 9 
2 *226:6 *226:12 6.93 
3 *226:12 *1411:A2 9.63 
4 *226:12 *226:27 13.23 
5 *226:27 *1252:I 23.85 
6 *226:27 *1279:A2 20.16 
7 *226:6 *1277:A2 10.17 
*END

*D_NET *227 0.00596391
*CONN
*I *1254:I I *D gf180mcu_fd_sc_mcu7t5v0__clkinv_1
*I *1274:A2 I *D gf180mcu_fd_sc_mcu7t5v0__nor2_2
*I *1277:A3 I *D gf180mcu_fd_sc_mcu7t5v0__nand3_1
*I *1433:Q O *D gf180mcu_fd_sc_mcu7t5v0__dffrnq_1
*CAP
1 *1254:I 0
2 *1274:A2 0.000227668
3 *1277:A3 0.000868783
4 *1433:Q 0
5 *227:31 0.000607604
6 *227:4 0.00124872
7 *1277:A3 *354:I 1.14052e-05
8 *1277:A3 *1352:A1 5.44885e-05
9 *1277:A3 *1433:RN 2.08301e-05
10 *1277:A3 *1434:RN 0.000136903
11 *1277:A3 *1463:RN 0.000284896
12 *1277:A3 *272:86 3.30707e-06
13 *1277:A3 *272:97 1.4382e-06
14 *1277:A3 *272:186 3.2553e-06
15 *227:31 *354:I 9.29483e-05
16 *360:I *1274:A2 0.00042641
17 *360:I *227:31 0.000282171
18 *1251:I *1277:A3 0.000462793
19 *1282:A2 *1274:A2 0.00073732
20 *1415:A1 *1277:A3 2.61692e-05
21 *99:12 *1274:A2 0
22 *99:12 *1277:A3 5.19366e-05
23 *99:12 *227:31 0
24 *120:81 *1274:A2 3.42509e-05
25 *121:24 *1274:A2 0.000380617
*RES
1 *1433:Q *227:4 4.5 
2 *227:4 *1277:A3 20.16 
3 *227:4 *227:31 7.56 
4 *227:31 *1274:A2 12.69 
5 *227:31 *1254:I 9 
*END

*D_NET *228 0.0154364
*CONN
*I *1274:A1 I *D gf180mcu_fd_sc_mcu7t5v0__nor2_2
*I *1278:A1 I *D gf180mcu_fd_sc_mcu7t5v0__nor3_1
*I *1285:A1 I *D gf180mcu_fd_sc_mcu7t5v0__oai21_1
*I *1253:I I *D gf180mcu_fd_sc_mcu7t5v0__clkinv_1
*I *1434:Q O *D gf180mcu_fd_sc_mcu7t5v0__dffrnq_1
*CAP
1 *1274:A1 0.000707383
2 *1278:A1 0.000384197
3 *1285:A1 2.61527e-05
4 *1253:I 8.25541e-05
5 *1434:Q 0.000211956
6 *228:24 0.000165284
7 *228:16 0.000735079
8 *228:10 0.00121364
9 *1253:I *274:108 1.42059e-05
10 *1274:A1 *325:12 0.00013441
11 *1278:A1 *1601:I 0.000676866
12 *228:10 *1434:RN 0.000346887
13 *228:10 *296:116 0.00100049
14 *228:16 *344:8 4.434e-05
15 *228:24 *350:I 0.00012775
16 *382:I *1274:A1 3.05952e-06
17 *1251:I *1274:A1 3.65538e-05
18 *1278:A2 *1278:A1 2.69868e-05
19 *1283:A1 *1274:A1 0.000129854
20 *1286:A2 *1253:I 8.65898e-05
21 *1286:A2 *1285:A1 8.49208e-05
22 *1301:B1 *1274:A1 0.000126583
23 *1407:C *1278:A1 1.13734e-05
24 *1415:A1 *1274:A1 0.000570894
25 *1415:A1 *1278:A1 0.000973595
26 *1415:A1 *228:16 0.00110701
27 *1433:D *1274:A1 0.000223281
28 *1433:CLK *1274:A1 3.86257e-05
29 *1460:D *1274:A1 8.46326e-05
30 *44:10 *1278:A1 3.55118e-05
31 *99:12 *1274:A1 0.00015264
32 *101:16 *1253:I 4.15021e-05
33 *101:16 *1285:A1 8.22041e-06
34 *101:16 *228:16 0.000871808
35 *101:16 *228:24 0.000145218
36 *113:10 *1278:A1 0.00209283
37 *113:10 *228:24 0.000295931
38 *113:16 *1278:A1 0.000360715
39 *170:26 *228:10 8.66027e-05
40 *170:26 *228:16 0.00107062
41 *170:26 *228:24 0.000152365
42 *170:55 *228:10 6.78893e-05
43 *225:8 *1274:A1 0.000186391
44 *225:8 *228:16 0.000493034
*RES
1 *1434:Q *228:10 16.29 
2 *228:10 *228:16 6.39 
3 *228:16 *228:24 10.26 
4 *228:24 *1253:I 5.13 
5 *228:24 *1285:A1 4.77 
6 *228:16 *1278:A1 21.06 
7 *228:10 *1274:A1 20.25 
*END

*D_NET *229 0.0391678
*CONN
*I *441:I I *D gf180mcu_fd_sc_mcu7t5v0__antenna
*I *1536:I I *D gf180mcu_fd_sc_mcu7t5v0__dlyb_1
*I *1371:A1 I *D gf180mcu_fd_sc_mcu7t5v0__aoi211_2
*I *394:I I *D gf180mcu_fd_sc_mcu7t5v0__antenna
*I *438:I I *D gf180mcu_fd_sc_mcu7t5v0__antenna
*I *1537:I I *D gf180mcu_fd_sc_mcu7t5v0__dlyb_1
*I *439:I I *D gf180mcu_fd_sc_mcu7t5v0__antenna
*I *1539:Z O *D gf180mcu_fd_sc_mcu7t5v0__dlyb_1
*CAP
1 *441:I 0.00379067
2 *1536:I 0
3 *1371:A1 0.000124557
4 *394:I 0
5 *438:I 0.00011473
6 *1537:I 0.00169012
7 *439:I 0
8 *1539:Z 0.00119879
9 *229:94 0.0039293
10 *229:83 0.000349149
11 *229:72 0.000540401
12 *229:51 0.00168163
13 *229:22 0.00177645
14 *441:I *433:I 3.68764e-05
15 *441:I *1530:I 0.000148388
16 *441:I *1587:I 0
17 *441:I *256:10 1.5302e-05
18 *441:I *260:12 0.000158418
19 *441:I *276:192 8.43242e-05
20 *441:I *284:12 0.00178192
21 *441:I *285:27 0
22 *441:I *327:53 0
23 *1371:A1 *372:I 0.000213674
24 *1371:A1 *312:14 0.00087116
25 *1537:I *1271:A1 0.000507135
26 *1537:I *1445:RN 0.000522617
27 *1537:I *1459:SETN 0.00165406
28 *1537:I *241:62 0.000873796
29 *1537:I *243:21 3.25877e-05
30 *1537:I *328:16 0.000506118
31 *229:22 *403:I 4.936e-05
32 *229:22 *239:41 8.32356e-05
33 *229:22 *265:38 0.000125102
34 *229:22 *281:35 6.76694e-05
35 *229:22 *281:43 2.31089e-05
36 *229:22 *296:46 2.72344e-05
37 *229:51 *1337:A1 0.000204964
38 *229:51 *1353:A1 0.000108596
39 *229:51 *290:61 6.27691e-05
40 *229:51 *291:44 3.5955e-06
41 *229:72 *1337:A1 0.000113115
42 *229:72 *312:14 0.000546446
43 *229:83 *276:192 4.10775e-05
44 *229:83 *312:14 3.12451e-05
45 *229:94 *276:192 0.000138824
46 dout[5] *441:I 0
47 samp_top *229:22 0
48 *397:I *441:I 0.000262886
49 *1313:A2 *229:51 0.000787085
50 *1329:A1 *229:51 0.00133587
51 *1333:A2 *441:I 0.000966839
52 *1335:A2 *441:I 0
53 *1343:A2 *441:I 0.000825713
54 *1343:A2 *229:72 0
55 *1343:A2 *229:83 0.00023712
56 *1343:A2 *229:94 0.00067746
57 *1347:B *1537:I 4.13359e-06
58 *1351:A2 *229:22 0.000675231
59 *1354:A2 *229:22 0.000649268
60 *1357:B *229:22 0.0042988
61 *1359:B *229:51 0.001025
62 *1366:A2 *438:I 0.000166798
63 *1366:A2 *229:51 3.12451e-05
64 *1366:A2 *229:72 0.000172267
65 *1421:D *441:I 0.000312301
66 *1422:D *441:I 7.31361e-06
67 *1446:D *1537:I 0.000157047
68 *1446:D *229:22 3.97987e-05
69 *1480:I *229:51 0
70 *1520:I *229:51 0.00104866
71 *1562:I *1371:A1 5.4985e-05
72 *1562:I *229:72 6.78886e-05
73 *97:60 *229:51 5.99095e-05
74 *108:43 *438:I 0.000172511
75 *118:14 *229:72 0
76 *153:6 *229:51 0.000192593
77 *153:6 *229:72 4.29496e-05
78 *159:12 *229:72 0
79 *159:41 *1371:A1 9.04462e-05
80 *159:43 *1371:A1 0.000375373
81 *166:24 *229:22 3.7834e-05
82 *170:26 *229:51 8.02081e-05
83 *172:22 *229:72 4.47028e-05
84 *177:24 *438:I 1.92142e-05
85 *191:34 *441:I 1.98103e-05
86 *208:11 *229:72 0
87 *208:11 *229:83 0
*RES
1 *1539:Z *229:22 34.6445 
2 *229:22 *439:I 9 
3 *229:22 *1537:I 18.36 
4 *1537:I *229:51 17.37 
5 *229:51 *438:I 14.67 
6 *229:51 *229:72 13.41 
7 *229:72 *394:I 4.5 
8 *229:72 *229:83 5.4 
9 *229:83 *1371:A1 11.61 
10 *229:83 *229:94 1.89 
11 *229:94 *1536:I 9 
12 *229:94 *441:I 37.53 
*END

*D_NET *230 0.0321178
*CONN
*I *1564:I I *D gf180mcu_fd_sc_mcu7t5v0__buf_2
*I *447:I I *D gf180mcu_fd_sc_mcu7t5v0__antenna
*I *353:I I *D gf180mcu_fd_sc_mcu7t5v0__antenna
*I *1263:ZN O *D gf180mcu_fd_sc_mcu7t5v0__clkinv_1
*CAP
1 *1564:I 0.000902894
2 *447:I 0.000242546
3 *353:I 0.0016106
4 *1263:ZN 0
5 *230:41 0.00433858
6 *230:4 0.00480374
7 *353:I *404:I 0.000213576
8 *353:I *1303:B 4.44745e-05
9 *353:I *1316:A2 0.000208426
10 *353:I *1386:S 0.000362773
11 *353:I *1436:RN 0
12 *353:I *1468:I 4.82027e-05
13 *353:I *243:36 7.73513e-05
14 *353:I *277:63 2.33832e-05
15 *353:I *289:14 0
16 *353:I *291:44 6.58085e-05
17 *353:I *328:10 3.64412e-05
18 *353:I *328:43 0.000239077
19 *447:I *273:61 0.000415035
20 *1564:I *349:I 1.84104e-05
21 *1564:I *1265:I 0
22 *1564:I *1269:I 0.000230932
23 *1564:I *1366:A1 4.45702e-05
24 *1564:I *1367:A2 0.00244452
25 *1564:I *1454:RN 4.84743e-05
26 *1564:I *1566:I 0.000439237
27 *1564:I *1567:I 0.000214135
28 *1564:I *1598:I 0.00043693
29 *1564:I *247:24 0.000139681
30 *1564:I *249:12 0.000354738
31 *1564:I *273:61 0.000869515
32 *1564:I *304:12 4.61945e-05
33 *1564:I *304:14 0.000182994
34 *230:41 *1258:I 2.29914e-05
35 *230:41 *1265:I 0
36 *230:41 *1270:A1 2.96615e-05
37 *230:41 *1270:A2 0
38 *230:41 *1312:A2 0.000795502
39 *230:41 *1312:A3 6.83517e-05
40 *230:41 *1349:A1 1.47388e-05
41 *230:41 *1356:A1 9.04462e-05
42 *230:41 *1399:B1 4.91072e-05
43 *230:41 *1572:I 0.000519816
44 *230:41 *243:36 2.89427e-06
45 *230:41 *243:67 0.00131534
46 *230:41 *272:59 2.23269e-05
47 *230:41 *277:18 0.000413612
48 dac_n[2] *1564:I 0.000289728
49 dac_p[1] *447:I 0.000727454
50 dac_p[5] *447:I 0.000110411
51 dac_p[5] *230:41 0.000185069
52 dac_p[7] *1564:I 0.000164908
53 dac_p[8] *1564:I 0.000621627
54 *1306:A1 *353:I 0.000547547
55 *1311:A2 *230:41 0.000198695
56 *1312:A1 *230:41 0.000153258
57 *1325:A1 *230:41 4.30304e-05
58 *1328:B *230:41 0
59 *1357:B *230:41 0.000383577
60 *1359:B *230:41 0.000562988
61 *1366:A2 *1564:I 0.000181475
62 *1372:B *447:I 0.000406991
63 *1372:B *1564:I 0.0011531
64 *1400:A2 *230:41 3.27893e-05
65 *1400:B2 *230:41 0
66 *1435:D *353:I 9.34436e-06
67 *1450:D *447:I 0.000164219
68 *1451:D *1564:I 2.11703e-05
69 *1478:I *230:41 0.000240928
70 *1503:I *230:41 5.88052e-05
71 *94:37 *230:41 0.00070489
72 *94:54 *230:41 0.00127637
73 *95:16 *230:41 0
74 *187:22 *353:I 0
75 *206:22 *230:41 0
76 *208:21 *230:41 0.000186661
77 *208:23 *230:41 0.000132335
78 *208:69 *230:41 0.00010015
79 *208:85 *230:41 0.000490382
80 *208:123 *230:41 0.000498155
81 *220:17 *353:I 2.36954e-05
*RES
1 *1263:ZN *230:4 4.5 
2 *230:4 *353:I 25.11 
3 *230:4 *230:41 47.25 
4 *230:41 *447:I 16.74 
5 *230:41 *1564:I 29.61 
*END

*D_NET *231 0.0210519
*CONN
*I *1375:A2 I *D gf180mcu_fd_sc_mcu7t5v0__nor3_1
*I *1305:A1 I *D gf180mcu_fd_sc_mcu7t5v0__oai21_1
*I *1292:A1 I *D gf180mcu_fd_sc_mcu7t5v0__oai22_4
*I *1403:A1 I *D gf180mcu_fd_sc_mcu7t5v0__oai211_1
*I *1399:B1 I *D gf180mcu_fd_sc_mcu7t5v0__oai22_4
*I *1542:Z O *D gf180mcu_fd_sc_mcu7t5v0__buf_2
*CAP
1 *1375:A2 0.000282137
2 *1305:A1 0.000208352
3 *1292:A1 0.000151515
4 *1403:A1 0.000110256
5 *1399:B1 0.00235876
6 *1542:Z 0.000289882
7 *231:50 0.00055126
8 *231:22 0.00283345
9 *231:16 0.00104775
10 *231:10 0.00106394
11 *1292:A1 *343:12 0.000557073
12 *1305:A1 *348:I 0.000449223
13 *1375:A2 *1273:A1 0.000153114
14 *1375:A2 *1375:A1 0.000118095
15 *1375:A2 *1375:A3 0.000221903
16 *1375:A2 *1408:A2 0.000218968
17 *1375:A2 *1601:I 0.000953324
18 *1403:A1 *1407:B2 2.60524e-05
19 *1403:A1 *276:20 0.000114217
20 *231:10 *380:I 0.000210635
21 *231:10 *239:47 2.56651e-06
22 *231:10 *239:97 0.000275925
23 *231:16 *1273:A1 0.001346
24 *231:16 *1601:I 0.000404148
25 *231:22 *1273:A1 0.000313835
26 *231:22 *1292:B2 0.000224343
27 *231:22 *1376:A2 0.000342946
28 *231:22 *1515:I 2.08301e-05
29 *231:22 *276:20 0.000219663
30 *231:22 *343:27 1.39313e-05
31 *231:50 *348:I 0.000247379
32 *427:I *231:16 1.53162e-05
33 *1296:A2 *1375:A2 6.08177e-05
34 *1296:A2 *231:16 0.000324033
35 *1296:A3 *231:10 0
36 *1357:B *1399:B1 9.49933e-05
37 *1372:A2 *231:50 0.000434954
38 *1374:B2 *1305:A1 0.000763211
39 *1374:B2 *231:50 0.00128554
40 *1407:A1 *231:50 4.88228e-06
41 *1408:A3 *1375:A2 0.000221903
42 *1412:B1 *1375:A2 3.53124e-05
43 *1430:CLK *1403:A1 6.12687e-06
44 *1430:CLK *231:22 0
45 *1466:D *1375:A2 0.000370045
46 *1469:I *1292:A1 2.30981e-05
47 *1488:I *1375:A2 0.000173263
48 *1501:I *1305:A1 0.000176246
49 *4:30 *231:16 1.31689e-06
50 *4:30 *231:22 9.60071e-05
51 *123:16 *231:22 0.000622299
52 *124:16 *231:10 0.000225644
53 *208:15 *1403:A1 1.54455e-05
54 *208:15 *231:22 1.61288e-05
55 *208:371 *231:22 0
56 *208:397 *231:16 0.000280571
57 *224:12 *231:16 0.000388648
58 *224:12 *231:22 3.55118e-05
59 *230:41 *1399:B1 4.91072e-05
*RES
1 *1542:Z *231:10 16.11 
2 *231:10 *231:16 6.57 
3 *231:16 *231:22 8.64 
4 *231:22 *1399:B1 26.19 
5 *231:22 *1403:A1 9.72 
6 *231:16 *231:50 8.19 
7 *231:50 *1292:A1 10.53 
8 *231:50 *1305:A1 12.15 
9 *231:10 *1375:A2 9.63 
*END

*D_NET *232 0.0129579
*CONN
*I *1385:S I *D gf180mcu_fd_sc_mcu7t5v0__mux2_2
*I *1386:S I *D gf180mcu_fd_sc_mcu7t5v0__mux2_2
*I *1389:S I *D gf180mcu_fd_sc_mcu7t5v0__mux2_2
*I *1388:S I *D gf180mcu_fd_sc_mcu7t5v0__mux2_2
*I *1387:S I *D gf180mcu_fd_sc_mcu7t5v0__mux2_2
*I *1543:Z O *D gf180mcu_fd_sc_mcu7t5v0__buf_2
*CAP
1 *1385:S 0
2 *1386:S 0.000609497
3 *1389:S 0
4 *1388:S 0
5 *1387:S 0.000965661
6 *1543:Z 0.000397607
7 *232:56 0.00103684
8 *232:18 0.000752307
9 *232:16 0.000611599
10 *1386:S *405:I 0.000442541
11 *1386:S *1314:A1 5.82902e-05
12 *1386:S *1386:I0 2.63429e-05
13 *1386:S *241:62 0.000319231
14 *1386:S *274:159 0
15 *1386:S *289:14 0
16 *1387:S *392:I 6.98034e-05
17 *1387:S *1388:I1 0.000486234
18 *1387:S *1584:I 0.000166798
19 *1387:S *274:159 5.69335e-05
20 *232:16 *1530:I 0.00271529
21 *232:16 *1585:I 2.29914e-05
22 *232:16 *255:10 4.59827e-06
23 *232:16 *285:51 0.000642227
24 *232:18 *1530:I 0.000579174
25 *232:18 *1584:I 3.12451e-05
26 *232:18 *285:51 0.000212092
27 *232:56 *404:I 0.000330577
28 *232:56 *405:I 7.99342e-07
29 *232:56 *1314:A1 8.51803e-05
30 *232:56 *1385:I0 4.18375e-05
31 *232:56 *274:159 7.89632e-05
32 dout[3] *232:18 6.89967e-05
33 dout[4] *232:16 0.000273058
34 dout[5] *232:16 0.000801961
35 *353:I *1386:S 0.000362773
36 *424:I *232:56 0.000239164
37 *1306:A1 *1386:S 1.86249e-05
38 *1416:CLK *1386:S 0.000106297
39 *1496:I *1387:S 0.000137511
40 *1496:I *232:56 0
41 *220:17 *1386:S 0.00020488
*RES
1 *1543:Z *232:16 21.6 
2 *232:16 *232:18 2.61 
3 *232:18 *1387:S 18.18 
4 *232:18 *1388:S 4.5 
5 *232:16 *1389:S 4.5 
6 *1387:S *232:56 17.19 
7 *232:56 *1386:S 18.99 
8 *232:56 *1385:S 4.5 
*END

*D_NET *233 0.0140778
*CONN
*I *1565:I I *D gf180mcu_fd_sc_mcu7t5v0__buf_2
*I *1264:ZN O *D gf180mcu_fd_sc_mcu7t5v0__clkinv_1
*CAP
1 *1565:I 0
2 *1264:ZN 0.00406322
3 *233:20 0.00406322
4 *233:20 *1374:A1 4.98823e-05
5 *233:20 *1570:I 0.000120892
6 *233:20 *280:31 0.000117482
7 *233:20 *290:129 0.000417075
8 *233:20 *292:47 0.000971951
9 *233:20 *298:14 0.00302483
10 *1363:B *233:20 0.000100647
11 *1374:B1 *233:20 0
12 *47:22 *233:20 0.000720123
13 *108:14 *233:20 2.21586e-05
14 *206:14 *233:20 0.000285916
15 *206:22 *233:20 0.000120409
*RES
1 *1264:ZN *233:20 47.5391 
2 *233:20 *1565:I 13.5 
*END

*D_NET *234 0.00974138
*CONN
*I *1566:I I *D gf180mcu_fd_sc_mcu7t5v0__buf_2
*I *1265:ZN O *D gf180mcu_fd_sc_mcu7t5v0__clkinv_1
*CAP
1 *1566:I 0.000877717
2 *1265:ZN 0.000877717
3 *1566:I *1367:A1 0.00303178
4 *1566:I *1367:A2 0.00254601
5 *1566:I *1567:I 0.000150632
6 *1566:I *235:18 8.72418e-05
7 *1566:I *247:24 0.000130329
8 dac_n[4] *1566:I 0.000146221
9 dac_n[5] *1566:I 3.5814e-05
10 dac_n[6] *1566:I 0
11 dac_p[8] *1566:I 0.000621627
12 dac_p[9] *1566:I 0.000436469
13 *1564:I *1566:I 0.000439237
14 *47:22 *1566:I 0.00035017
15 *210:23 *1566:I 1.0415e-05
*RES
1 *1265:ZN *1566:I 24.57 
*END

*D_NET *235 0.0112659
*CONN
*I *1567:I I *D gf180mcu_fd_sc_mcu7t5v0__buf_2
*I *1266:ZN O *D gf180mcu_fd_sc_mcu7t5v0__clkinv_1
*CAP
1 *1567:I 0.00102318
2 *1266:ZN 0.00215883
3 *235:18 0.00318201
4 *1567:I *1269:I 0.000556042
5 *1567:I *1367:A2 8.12023e-06
6 *1567:I *1538:I 0.000189674
7 *1567:I *1548:I 4.5008e-06
8 *1567:I *296:10 7.03142e-05
9 *1567:I *298:14 0.000142831
10 *1567:I *298:65 0.000216019
11 *1567:I *298:76 0.000336951
12 *1567:I *342:30 1.30881e-05
13 *235:18 *1265:I 5.57527e-05
14 *235:18 *1266:I 0.000100647
15 *235:18 *1367:A1 0.00021172
16 *235:18 *1571:I 6.85307e-05
17 *235:18 *247:24 0.000211109
18 *235:18 *248:10 5.36871e-05
19 dac_n[0] *235:18 3.58021e-05
20 dac_n[1] *235:18 1.54251e-05
21 dac_n[2] *1567:I 0.000113945
22 dac_n[2] *235:18 2.5414e-05
23 dac_n[5] *1567:I 6.21948e-05
24 dac_n[6] *1567:I 2.77055e-05
25 dac_n[7] *1567:I 0.000216538
26 dac_p[0] *235:18 0.000238712
27 dac_p[1] *235:18 0.000179147
28 dac_p[4] *235:18 0.000303136
29 dac_p[6] *235:18 0.000161003
30 dac_p[8] *235:18 1.94743e-05
31 *1396:A2 *1567:I 2.30981e-05
32 *1458:D *1567:I 0.000759916
33 *1564:I *1567:I 0.000214135
34 *1566:I *1567:I 0.000150632
35 *1566:I *235:18 8.72418e-05
36 *86:18 *1567:I 1.56862e-05
37 *100:16 *1567:I 1.36702e-05
38 *210:23 *1567:I 0
*RES
1 *1266:ZN *235:18 38.79 
2 *235:18 *1567:I 16.38 
*END

*D_NET *236 0.0122473
*CONN
*I *1568:I I *D gf180mcu_fd_sc_mcu7t5v0__buf_2
*I *1267:ZN O *D gf180mcu_fd_sc_mcu7t5v0__clkinv_1
*CAP
1 *1568:I 0
2 *1267:ZN 0.00326398
3 *236:14 0.00326398
4 *236:14 *298:86 6.96086e-05
5 *236:14 *319:18 0.00451551
6 *47:22 *236:14 0.00113423
*RES
1 *1267:ZN *236:14 47.25 
2 *236:14 *1568:I 4.5 
*END

*D_NET *237 0.0108661
*CONN
*I *1569:I I *D gf180mcu_fd_sc_mcu7t5v0__buf_2
*I *1268:ZN O *D gf180mcu_fd_sc_mcu7t5v0__clkinv_1
*CAP
1 *1569:I 0.00196824
2 *1268:ZN 0.00196824
3 *1569:I *1250:I 0.000229717
4 *1569:I *1299:A2 0.000770509
5 *1569:I *1529:I 0.000161958
6 *1569:I *307:18 0.000220208
7 *1569:I *345:25 0.000260117
8 *1569:I *345:40 0.000856952
9 cmp_rst *1569:I 0.000443265
10 *443:I *1569:I 0.000962989
11 *1251:I *1569:I 5.78287e-06
12 *1299:B *1569:I 0.00016583
13 *1382:A2 *1569:I 0.00224493
14 *1457:D *1569:I 3.42509e-05
15 *1541:I *1569:I 0.000214047
16 *4:30 *1569:I 0.000189429
17 *98:12 *1569:I 0.000152006
18 *99:12 *1569:I 1.7611e-05
*RES
1 *1268:ZN *1569:I 42.75 
*END

*D_NET *238 0.00868029
*CONN
*I *1570:I I *D gf180mcu_fd_sc_mcu7t5v0__buf_2
*I *1374:A1 I *D gf180mcu_fd_sc_mcu7t5v0__aoi22_1
*I *1269:ZN O *D gf180mcu_fd_sc_mcu7t5v0__clkinv_1
*CAP
1 *1570:I 0.00247934
2 *1374:A1 0.000991132
3 *1269:ZN 0
4 *238:8 0.00347047
5 *1374:A1 *1287:A1 6.28565e-05
6 *1374:A1 *1379:A1 2.33065e-05
7 *1374:A1 *280:48 8.62654e-05
8 *1374:A1 *296:34 7.04887e-05
9 *1374:A1 *308:20 5.78796e-05
10 *1570:I *1460:RN 0.000393153
11 *1570:I *296:34 1.39946e-05
12 dac_n[9] *1570:I 0.000191642
13 *1457:D *1570:I 0.000114639
14 *47:22 *1374:A1 0
15 *47:22 *1570:I 0
16 *86:18 *1570:I 0
17 *120:69 *1374:A1 0.000531039
18 *122:20 *1374:A1 2.33065e-05
19 *233:20 *1374:A1 4.98823e-05
20 *233:20 *1570:I 0.000120892
*RES
1 *1269:ZN *238:8 13.5 
2 *238:8 *1374:A1 19.89 
3 *238:8 *1570:I 27.9 
*END

*D_NET *239 0.0547919
*CONN
*I *402:I I *D gf180mcu_fd_sc_mcu7t5v0__antenna
*I *376:I I *D gf180mcu_fd_sc_mcu7t5v0__antenna
*I *448:I I *D gf180mcu_fd_sc_mcu7t5v0__antenna
*I *1571:I I *D gf180mcu_fd_sc_mcu7t5v0__buf_2
*I *1346:A1 I *D gf180mcu_fd_sc_mcu7t5v0__nand2_1
*I *350:I I *D gf180mcu_fd_sc_mcu7t5v0__antenna
*I *1260:I I *D gf180mcu_fd_sc_mcu7t5v0__clkinv_1
*I *1445:Q O *D gf180mcu_fd_sc_mcu7t5v0__dffrnq_1
*CAP
1 *402:I 6.01608e-06
2 *376:I 0.000121582
3 *448:I 0.000169448
4 *1571:I 0.00127115
5 *1346:A1 0.000645498
6 *350:I 0.00281383
7 *1260:I 0.000743638
8 *1445:Q 0.000936647
9 *239:97 0.00237929
10 *239:83 0.00115972
11 *239:47 0.00397342
12 *239:41 0.00498666
13 *239:18 0.00591134
14 *239:12 0.00173725
15 *350:I *358:I 4.217e-05
16 *350:I *451:I 0
17 *350:I *1392:I0 0.000488866
18 *350:I *1392:I1 0.000147005
19 *350:I *1466:RN 0.00107023
20 *350:I *1588:I 0.000350144
21 *350:I *248:65 0
22 *350:I *248:89 0
23 *350:I *258:8 2.63343e-05
24 *350:I *274:114 6.40689e-05
25 *350:I *326:27 2.08059e-05
26 *376:I *288:20 0.000140218
27 *402:I *1304:A1 0.000100647
28 *448:I *305:8 0
29 *1260:I *1304:A2 0.000190762
30 *1260:I *1598:I 3.32853e-05
31 *1260:I *296:46 0
32 *1260:I *296:61 0.000113237
33 *1346:A1 *1346:A2 8.49208e-05
34 *1346:A1 *310:16 8.49208e-05
35 *1346:A1 *344:27 3.16918e-06
36 *1571:I *1288:B 0.000266586
37 *1571:I *1290:A1 9.67415e-05
38 *1571:I *1290:A2 0.000209098
39 *1571:I *1381:A1 1.83931e-05
40 *1571:I *1461:RN 0.000642779
41 *1571:I *1548:I 4.86553e-05
42 *1571:I *296:34 0.000613075
43 *1571:I *298:14 0
44 *1571:I *304:12 0
45 *1571:I *305:8 0
46 *1571:I *342:30 0
47 *239:12 *240:12 0.000176392
48 *239:12 *243:21 0
49 *239:12 *292:16 0.00100703
50 *239:12 *308:20 2.18192e-06
51 *239:41 *292:16 0.000479314
52 *239:41 *292:41 0.00246283
53 *239:41 *308:20 0.000177977
54 *239:47 *380:I 0.000365421
55 *239:47 *1601:I 0.00110196
56 *239:83 *288:20 0.000349455
57 *239:97 *288:26 2.82325e-05
58 *239:97 *341:14 0.00023751
59 dac_n[2] *1571:I 1.09982e-05
60 *414:I *239:97 0.000260676
61 *1273:A2 *239:41 0
62 *1273:A2 *239:83 0
63 *1280:A1 *1571:I 0.000159257
64 *1280:A1 *239:97 0.00033886
65 *1280:A2 *1571:I 0.00103237
66 *1296:A3 *239:47 0.000110105
67 *1296:A3 *239:97 0
68 *1299:B *1346:A1 4.70529e-06
69 *1340:B *350:I 0.000155004
70 *1343:A2 *350:I 6.21246e-06
71 *1348:A2 *1260:I 0.000213112
72 *1357:B *239:41 0
73 *1369:B *1571:I 2.38851e-06
74 *1407:C *350:I 0.000125111
75 *1415:A2 *1346:A1 0.00014767
76 *1423:D *350:I 0.001182
77 *1443:D *350:I 1.17934e-05
78 *1443:CLK *350:I 0.00134469
79 *1445:D *1260:I 0.000105061
80 *1446:D *239:41 0
81 *1452:D *1571:I 0
82 *1460:D *448:I 1.94149e-05
83 *1462:D *376:I 0.000145991
84 *1466:D *1346:A1 6.73471e-05
85 *1475:I *350:I 0
86 *1498:I *1571:I 7.191e-07
87 *4:30 *376:I 4.82512e-05
88 *7:26 *1260:I 0
89 *7:26 *239:18 0
90 *100:31 *239:97 0.00131163
91 *110:33 *239:41 0
92 *113:10 *350:I 0.000547906
93 *113:16 *350:I 4.62496e-05
94 *120:69 *376:I 3.83762e-05
95 *120:69 *239:41 0.00140942
96 *120:69 *239:83 0.000150451
97 *121:24 *448:I 0.000589929
98 *121:24 *1571:I 0.000101177
99 *122:20 *1571:I 0.000158346
100 *124:16 *376:I 8.56918e-05
101 *124:16 *239:97 0.000465314
102 *126:28 *239:97 4.59827e-06
103 *131:12 *1346:A1 0.000135937
104 *166:12 *1346:A1 8.47392e-05
105 *166:24 *350:I 0
106 *166:24 *1260:I 0.00304519
107 *166:24 *1346:A1 0
108 *166:24 *239:12 0
109 *166:24 *239:18 0.00218305
110 *208:279 *350:I 0
111 *208:399 *376:I 2.0903e-05
112 *212:28 *350:I 0.000155583
113 *213:21 *350:I 7.12295e-06
114 *219:18 *402:I 0.000100647
115 *228:24 *350:I 0.00012775
116 *229:22 *239:41 8.32356e-05
117 *231:10 *239:47 2.56651e-06
118 *231:10 *239:97 0.000275925
119 *235:18 *1571:I 6.85307e-05
*RES
1 *1445:Q *239:12 19.98 
2 *239:12 *239:18 7.19231 
3 *239:18 *1260:I 21.4495 
4 *239:18 *239:41 30.9632 
5 *239:41 *239:47 13.77 
6 *239:47 *350:I 36.99 
7 *239:47 *1346:A1 17.19 
8 *239:41 *239:83 1.17 
9 *239:83 *239:97 26.01 
10 *239:97 *1571:I 34.29 
11 *239:97 *448:I 6.21 
12 *239:83 *376:I 14.67 
13 *239:12 *402:I 13.77 
*END

*D_NET *240 0.0176158
*CONN
*I *1349:A1 I *D gf180mcu_fd_sc_mcu7t5v0__nand2_1
*I *1572:I I *D gf180mcu_fd_sc_mcu7t5v0__buf_2
*I *1261:I I *D gf180mcu_fd_sc_mcu7t5v0__clkinv_1
*I *1446:Q O *D gf180mcu_fd_sc_mcu7t5v0__dffrnq_1
*CAP
1 *1349:A1 0.0020509
2 *1572:I 0.000585019
3 *1261:I 3.44897e-05
4 *1446:Q 0.000392373
5 *240:23 0.00369829
6 *240:12 0.00148923
7 *1349:A1 *1248:I 0.000149777
8 *1349:A1 *1305:A2 0
9 *1349:A1 *1305:B 0.000609345
10 *1349:A1 *1349:A2 2.07522e-05
11 *1349:A1 *1375:A3 0
12 *1349:A1 *1407:A2 0.000234262
13 *1349:A1 *1462:RN 5.71961e-05
14 *1349:A1 *272:117 1.0415e-05
15 *1349:A1 *272:125 4.6613e-06
16 *1349:A1 *290:188 0.00203382
17 *1349:A1 *310:16 4.26496e-05
18 *1349:A1 *312:29 0.000250003
19 *240:12 *243:21 2.08933e-05
20 *240:12 *291:10 0.000246917
21 *240:12 *291:18 7.85256e-05
22 *240:12 *291:44 0
23 *240:12 *312:29 0.000150179
24 *240:23 *1264:I 0
25 *240:23 *1427:SETN 0.00061362
26 *240:23 *1428:RN 0.000210765
27 *240:23 *1445:RN 6.51832e-05
28 *240:23 *291:79 0.000354728
29 *422:I *1572:I 6.42054e-08
30 *1301:A2 *1349:A1 1.23806e-05
31 *1325:A4 *1349:A1 0.000530707
32 *1341:A3 *1349:A1 3.70356e-05
33 *1350:B *240:23 0
34 *1398:S *240:23 0
35 *1399:A1 *240:23 2.16941e-05
36 *1400:A2 *1572:I 0.000137649
37 *1400:B2 *1349:A1 0.000385601
38 *1400:B2 *1572:I 0.000419645
39 *1415:B *1349:A1 5.03807e-05
40 *1428:CLK *1572:I 0.000213967
41 *1477:I *240:23 0
42 *1502:I *1349:A1 4.34467e-06
43 *1519:I *240:23 2.258e-05
44 *94:37 *240:23 0
45 *123:45 *1349:A1 0
46 *159:12 *1349:A1 0.000432749
47 *159:41 *1349:A1 0.000531248
48 *168:10 *1349:A1 0.000211575
49 *208:19 *1572:I 6.49999e-05
50 *208:85 *1349:A1 0.000165303
51 *208:85 *1572:I 0.000258904
52 *208:85 *240:23 0
53 *230:41 *1349:A1 1.47388e-05
54 *230:41 *1572:I 0.000519816
55 *239:12 *240:12 0.000176392
*RES
1 *1446:Q *240:12 17.1 
2 *240:12 *1261:I 4.77 
3 *240:12 *240:23 11.61 
4 *240:23 *1572:I 14.4 
5 *240:23 *1349:A1 29.07 
*END

*D_NET *241 0.0457498
*CONN
*I *405:I I *D gf180mcu_fd_sc_mcu7t5v0__antenna
*I *351:I I *D gf180mcu_fd_sc_mcu7t5v0__antenna
*I *383:I I *D gf180mcu_fd_sc_mcu7t5v0__antenna
*I *1352:A1 I *D gf180mcu_fd_sc_mcu7t5v0__nand2_1
*I *449:I I *D gf180mcu_fd_sc_mcu7t5v0__antenna
*I *1573:I I *D gf180mcu_fd_sc_mcu7t5v0__buf_2
*I *1262:I I *D gf180mcu_fd_sc_mcu7t5v0__clkinv_1
*I *1447:Q O *D gf180mcu_fd_sc_mcu7t5v0__dffrnq_1
*CAP
1 *405:I 0.000601429
2 *351:I 0.000142508
3 *383:I 5.13107e-05
4 *1352:A1 0.000593366
5 *449:I 0
6 *1573:I 0.000128031
7 *1262:I 0.000778812
8 *1447:Q 6.33434e-05
9 *241:119 0.0011873
10 *241:111 0.00219457
11 *241:88 0.0031923
12 *241:62 0.00440829
13 *241:31 0.00231749
14 *241:6 0.000907623
15 *351:I *401:I 0.000143204
16 *351:I *1393:S 5.06031e-06
17 *351:I *324:23 0.000117469
18 *405:I *404:I 0
19 *405:I *1314:A1 1.18462e-05
20 *405:I *1385:I0 0.000638643
21 *405:I *314:16 0
22 *1262:I *1304:A1 0.000490083
23 *1262:I *1304:A2 1.81429e-05
24 *1262:I *1364:A1 0.000247389
25 *1262:I *1595:I 0
26 *1262:I *265:38 0.000144332
27 *1262:I *281:43 0.00071647
28 *1262:I *296:61 3.53326e-05
29 *1352:A1 *272:186 0.000288137
30 *1352:A1 *325:8 0.000117807
31 *1352:A1 *325:12 1.52092e-05
32 *241:62 *404:I 0
33 *241:62 *1271:A1 0.000175636
34 *241:62 *1350:C 0.000354684
35 *241:62 *1385:I1 8.14177e-05
36 *241:62 *1386:I0 0.000339115
37 *241:62 *1386:I1 0.00141411
38 *241:62 *1436:RN 0.00164318
39 *241:62 *1459:SETN 0.000578407
40 *241:62 *269:65 0.000354738
41 *241:62 *328:10 4.03129e-06
42 *241:62 *328:16 2.97734e-05
43 *241:62 *328:43 4.51877e-05
44 *241:62 *331:10 0.000117898
45 *241:88 *450:I 0.000113714
46 *241:88 *1324:A1 0.000374478
47 *241:88 *1387:I1 0.000416543
48 *241:88 *269:65 1.84368e-05
49 *241:88 *269:69 5.43436e-05
50 *241:111 *364:I 0.000223398
51 *241:111 *409:I 0.000397734
52 *241:111 *451:I 0.000126461
53 *241:111 *1391:I0 3.73247e-05
54 *241:111 *1442:RN 3.97987e-05
55 *241:111 *274:155 3.60262e-05
56 *241:119 *401:I 0.000166798
57 *241:119 *1434:RN 0.000137914
58 *241:119 *1561:I 0.000158383
59 *241:119 *296:116 0.00185072
60 *241:119 *324:23 0.000473836
61 dac_p[2] *1262:I 0.00027541
62 dac_p[2] *241:6 0.000461702
63 dout[1] *405:I 6.63764e-05
64 samp_bot *1262:I 0
65 *382:I *1352:A1 1.35901e-05
66 *385:I *383:I 8.22041e-06
67 *385:I *241:119 7.579e-05
68 *417:I *241:111 0.00015827
69 *424:I *241:88 1.43104e-05
70 *1251:I *1352:A1 0.000108794
71 *1277:A3 *1352:A1 5.44885e-05
72 *1306:A1 *241:62 4.34691e-05
73 *1306:A1 *241:88 0.000291536
74 *1320:B *241:88 0.00168016
75 *1324:A2 *241:88 0.000698334
76 *1324:B *241:88 7.25287e-05
77 *1324:B *241:111 0.000188199
78 *1335:B *241:111 0.000169278
79 *1348:A2 *1262:I 6.57065e-05
80 *1351:A2 *1262:I 0
81 *1354:B *241:31 0.00043777
82 *1354:B *241:62 0.00102436
83 *1386:S *405:I 0.000442541
84 *1386:S *241:62 0.000319231
85 *1415:A1 *1352:A1 2.4878e-05
86 *1416:D *241:62 6.01893e-05
87 *1426:D *1262:I 5.30751e-05
88 *1426:D *1573:I 4.41268e-05
89 *1426:CLK *1262:I 0.00041297
90 *1426:CLK *241:6 0.000122695
91 *1436:D *241:62 0.00238083
92 *1437:D *241:62 1.58013e-05
93 *1439:D *241:88 0.000139046
94 *1446:D *1262:I 6.39342e-06
95 *1446:D *241:31 0.000114229
96 *1446:D *241:62 0.000598878
97 *1447:D *1262:I 0.000308632
98 *1448:CLK *1262:I 0
99 *1456:D *241:6 0.000251758
100 *1459:CLK *1573:I 0.000128374
101 *1537:I *241:62 0.000873796
102 *99:12 *1352:A1 5.85014e-05
103 *146:34 *241:88 0.00115203
104 *146:34 *241:111 0.000774201
105 *170:55 *241:119 0.000176571
106 *191:20 *241:62 3.73774e-06
107 *191:20 *241:88 0.000183517
108 *191:34 *241:111 0.000603768
109 *208:205 *241:88 7.20436e-05
110 *208:215 *241:88 0.000143853
111 *208:229 *241:88 9.56842e-05
112 *208:241 *241:88 0.000373303
113 *208:241 *241:111 0.000158514
114 *212:28 *241:111 6.02091e-06
115 *213:6 *241:111 5.01664e-05
116 *213:8 *241:111 3.44871e-05
117 *219:10 *241:62 0.000313912
118 *220:17 *241:62 2.33119e-05
119 *232:56 *405:I 7.99342e-07
*RES
1 *1447:Q *241:6 5.85 
2 *241:6 *1262:I 22.14 
3 *241:6 *241:31 5.67 
4 *241:31 *1573:I 9.99 
5 *241:31 *241:62 45.09 
6 *241:62 *241:88 32.94 
7 *241:88 *449:I 4.5 
8 *241:88 *241:111 36 
9 *241:111 *241:119 11.79 
10 *241:119 *1352:A1 17.82 
11 *241:119 *383:I 4.77 
12 *241:111 *351:I 10.44 
13 *241:62 *405:I 14.67 
*END

*D_NET *242 0.0137429
*CONN
*I *1535:I I *D gf180mcu_fd_sc_mcu7t5v0__dlyb_1
*I *1529:I I *D gf180mcu_fd_sc_mcu7t5v0__dlyb_1
*I *1540:Z O *D gf180mcu_fd_sc_mcu7t5v0__dlyb_1
*CAP
1 *1535:I 0.000635567
2 *1529:I 0.00324894
3 *1540:Z 0
4 *242:6 0.00388451
5 *1529:I *1250:I 0
6 *1529:I *1299:A1 7.51089e-06
7 *1529:I *1299:A2 8.68281e-06
8 *1529:I *345:25 0.000403721
9 *1529:I *345:40 0.00288871
10 *1535:I *1587:I 0
11 *1535:I *1590:I 0.000575012
12 dout[9] *1535:I 8.40821e-05
13 *442:I *1535:I 0.000172556
14 *1410:A1 *1529:I 9.04462e-05
15 *1410:A2 *1529:I 8.49143e-05
16 *1412:B1 *1529:I 0.000502462
17 *1488:I *1529:I 0.000650379
18 *1569:I *1529:I 0.000161958
19 *40:13 *1529:I 5.40715e-05
20 *40:13 *1535:I 0.000105601
21 *98:12 *1529:I 0.000183755
*RES
1 *1540:Z *242:6 9 
2 *242:6 *1529:I 43.2 
3 *242:6 *1535:I 14.4 
*END

*D_NET *243 0.0374846
*CONN
*I *450:I I *D gf180mcu_fd_sc_mcu7t5v0__antenna
*I *407:I I *D gf180mcu_fd_sc_mcu7t5v0__antenna
*I *1355:A1 I *D gf180mcu_fd_sc_mcu7t5v0__nand2_1
*I *387:I I *D gf180mcu_fd_sc_mcu7t5v0__antenna
*I *1263:I I *D gf180mcu_fd_sc_mcu7t5v0__clkinv_1
*I *352:I I *D gf180mcu_fd_sc_mcu7t5v0__antenna
*I *1574:I I *D gf180mcu_fd_sc_mcu7t5v0__buf_2
*I *1448:Q O *D gf180mcu_fd_sc_mcu7t5v0__dffrnq_1
*CAP
1 *450:I 0.000448642
2 *407:I 0
3 *1355:A1 0.000248273
4 *387:I 0
5 *1263:I 0
6 *352:I 0
7 *1574:I 0.000364565
8 *1448:Q 0.000199939
9 *243:101 0.000689642
10 *243:79 0.00376452
11 *243:67 0.00544224
12 *243:36 0.00202389
13 *243:21 0.00133509
14 *243:8 0.00156069
15 *450:I *1390:S 4.27339e-05
16 *450:I *1557:I 0.00120091
17 *450:I *274:159 9.95935e-05
18 *450:I *284:12 6.93035e-05
19 *1355:A1 *369:I 2.89427e-06
20 *1574:I *1271:A1 0.00100086
21 *1574:I *1575:I 0.000124367
22 *243:8 *1575:I 0.000404089
23 *243:21 *404:I 0.000254169
24 *243:21 *1271:A1 0.000846251
25 *243:21 *1445:RN 0.00238775
26 *243:21 *1456:RN 0.000210967
27 *243:21 *291:10 4.93516e-05
28 *243:21 *308:20 6.87714e-05
29 *243:21 *328:16 0.000911387
30 *243:36 *404:I 3.11335e-05
31 *243:36 *291:44 0.000207305
32 *243:36 *328:10 0.000363016
33 *243:36 *328:16 0.000656225
34 *243:67 *406:I 0.000236142
35 *243:67 *1321:A1 0.000400239
36 *243:67 *1328:A1 0.00015863
37 *243:67 *1331:A1 0.00039778
38 *243:67 *1353:C 0.000186946
39 *243:67 *1356:A1 9.04462e-05
40 *243:67 *1365:A2 9.61678e-05
41 *243:67 *266:20 0.00068065
42 *243:67 *336:16 3.88059e-05
43 *243:67 *336:31 5.82414e-05
44 *243:79 *367:I 1.06861e-05
45 *243:79 *369:I 5.55249e-05
46 *243:79 *406:I 0.000532243
47 *243:79 *1323:A1 3.08259e-06
48 *243:79 *1393:S 1.71254e-05
49 *243:79 *276:203 0.000203044
50 *243:79 *276:216 7.14486e-05
51 *243:79 *276:220 1.56862e-05
52 *243:101 *355:I 0.000113269
53 *243:101 *406:I 0.00120859
54 *243:101 *1328:A1 0.000117296
55 *353:I *243:36 7.73513e-05
56 *386:I *1355:A1 0.000599548
57 *419:I *1355:A1 2.1573e-06
58 *1325:A1 *243:67 0.000842216
59 *1329:A3 *243:67 0.000997576
60 *1353:B1 *243:67 9.83261e-05
61 *1357:A2 *243:67 0.000323074
62 *1398:I1 *243:21 0.000248178
63 *1426:D *243:8 5.0784e-05
64 *1441:D *450:I 0.000121366
65 *1456:D *1574:I 0
66 *1459:D *243:21 5.69252e-05
67 *1492:I *243:79 4.89196e-07
68 *1537:I *243:21 3.25877e-05
69 *1544:I *243:67 0.000309289
70 *47:22 *1574:I 7.94868e-06
71 *47:22 *243:21 6.65753e-05
72 *108:43 *243:67 0.000175082
73 *109:24 *1574:I 0.000218326
74 *109:24 *243:21 0
75 *140:12 *243:67 0.000100966
76 *146:34 *243:79 2.60534e-05
77 *147:22 *243:67 0.000223398
78 *170:26 *243:67 0.000333366
79 *172:22 *243:67 0.00012678
80 *172:22 *243:79 0.000555774
81 *172:57 *1355:A1 0.000343086
82 *205:25 *243:67 0.000103489
83 *208:241 *450:I 0.00010515
84 *209:6 *243:8 0.000134369
85 *219:10 *243:36 4.64411e-05
86 *219:10 *243:67 4.52386e-06
87 *230:41 *243:36 2.89427e-06
88 *230:41 *243:67 0.00131534
89 *239:12 *243:21 0
90 *240:12 *243:21 2.08933e-05
91 *241:88 *450:I 0.000113714
*RES
1 *1448:Q *243:8 10.89 
2 *243:8 *1574:I 12.42 
3 *243:8 *243:21 12.33 
4 *243:21 *352:I 9 
5 *243:21 *243:36 8.37 
6 *243:36 *1263:I 4.5 
7 *243:36 *243:67 24.3 
8 *243:67 *243:79 31.41 
9 *243:79 *387:I 4.5 
10 *243:79 *1355:A1 15.84 
11 *243:67 *243:101 7.83 
12 *243:101 *407:I 4.5 
13 *243:101 *450:I 18.45 
*END

*D_NET *244 0.0133489
*CONN
*I *1358:A1 I *D gf180mcu_fd_sc_mcu7t5v0__nand2_1
*I *1264:I I *D gf180mcu_fd_sc_mcu7t5v0__clkinv_1
*I *1575:I I *D gf180mcu_fd_sc_mcu7t5v0__buf_2
*I *1449:Q O *D gf180mcu_fd_sc_mcu7t5v0__dffrnq_1
*CAP
1 *1358:A1 0
2 *1264:I 0.001116
3 *1575:I 0.000803227
4 *1449:Q 0
5 *244:39 0.00162129
6 *244:4 0.00130852
7 *1264:I *291:79 0
8 *1264:I *293:54 0
9 *1264:I *301:10 0.000306836
10 *1575:I *1271:A1 5.90742e-06
11 *1575:I *1361:A1 0.000659262
12 *1575:I *265:38 0.00019974
13 *1575:I *281:29 1.478e-05
14 *1575:I *281:35 0.000173603
15 *1575:I *296:46 7.49728e-06
16 *244:39 *1361:A1 0.000232503
17 *244:39 *1373:B 0.000109657
18 *244:39 *1549:I 0.000846896
19 *244:39 *272:46 0.000107809
20 *244:39 *301:10 0.000365407
21 *1357:A2 *1264:I 0.00151896
22 *1357:A2 *244:39 0.000392205
23 *1360:A2 *244:39 7.32377e-05
24 *1374:B1 *244:39 9.85915e-05
25 *1398:I1 *1264:I 1.39839e-05
26 *1398:I1 *244:39 5.78854e-06
27 *1400:A1 *1264:I 4.71183e-05
28 *1426:D *1575:I 0.000491186
29 *1426:D *244:39 9.38633e-05
30 *1448:CLK *1575:I 6.17899e-06
31 *1470:I *1264:I 5.78854e-06
32 *1470:I *244:39 6.41229e-05
33 *1501:I *244:39 1.0415e-05
34 *1574:I *1575:I 0.000124367
35 *47:22 *1575:I 0.00160311
36 *94:37 *1264:I 0.000479911
37 *209:6 *1575:I 3.70043e-05
38 *240:23 *1264:I 0
39 *243:8 *1575:I 0.000404089
*RES
1 *1449:Q *244:4 4.5 
2 *244:4 *1575:I 22.95 
3 *244:4 *244:39 23.76 
4 *244:39 *1264:I 22.23 
5 *244:39 *1358:A1 4.5 
*END

*D_NET *245 0.00907892
*CONN
*I *1576:I I *D gf180mcu_fd_sc_mcu7t5v0__buf_2
*I *1361:A1 I *D gf180mcu_fd_sc_mcu7t5v0__nand2_1
*I *1265:I I *D gf180mcu_fd_sc_mcu7t5v0__clkinv_1
*I *1450:Q O *D gf180mcu_fd_sc_mcu7t5v0__dffrnq_1
*CAP
1 *1576:I 0
2 *1361:A1 0.000283615
3 *1265:I 0.0014288
4 *1450:Q 0
5 *245:31 0.000525563
6 *245:4 0.00167075
7 *1265:I *349:I 0.00015767
8 *1265:I *1366:A1 5.33941e-05
9 *1265:I *1548:I 0.0001135
10 *1265:I *246:14 0.000230239
11 *1265:I *273:61 1.86249e-05
12 *1265:I *280:31 0
13 *1361:A1 *1448:RN 0.00110559
14 *1361:A1 *1449:RN 5.75634e-06
15 *245:31 *1448:RN 6.72417e-05
16 *245:31 *1449:RN 5.78854e-06
17 *245:31 *1548:I 0.000248502
18 *245:31 *246:14 4.76218e-05
19 dac_p[5] *245:31 0.00012473
20 dac_p[7] *1265:I 0
21 dac_p[8] *1265:I 0.000141186
22 *1426:D *1361:A1 1.22516e-05
23 *1493:I *1265:I 0.000242152
24 *1503:I *1265:I 9.62067e-05
25 *1564:I *1265:I 0
26 *1575:I *1361:A1 0.000659262
27 *94:16 *1361:A1 0.000155035
28 *168:26 *1361:A1 0.000361047
29 *206:22 *1265:I 0.00102299
30 *209:6 *1361:A1 1.31479e-05
31 *230:41 *1265:I 0
32 *235:18 *1265:I 5.57527e-05
33 *244:39 *1361:A1 0.000232503
*RES
1 *1450:Q *245:4 4.5 
2 *245:4 *1265:I 23.76 
3 *245:4 *245:31 2.43 
4 *245:31 *1361:A1 18 
5 *245:31 *1576:I 4.5 
*END

*D_NET *246 0.0117423
*CONN
*I *1577:I I *D gf180mcu_fd_sc_mcu7t5v0__buf_2
*I *1364:A1 I *D gf180mcu_fd_sc_mcu7t5v0__nand2_1
*I *1266:I I *D gf180mcu_fd_sc_mcu7t5v0__clkinv_1
*I *1451:Q O *D gf180mcu_fd_sc_mcu7t5v0__dffrnq_1
*CAP
1 *1577:I 0
2 *1364:A1 0.000153105
3 *1266:I 0.000214283
4 *1451:Q 0.000830612
5 *246:39 0.000573556
6 *246:14 0.00146535
7 *1364:A1 *1364:A2 1.19491e-05
8 *1364:A1 *281:43 5.79792e-06
9 *1364:A1 *319:18 3.2553e-06
10 *246:14 *1360:A1 0.000127759
11 *246:14 *1449:RN 0.000535988
12 *246:14 *272:31 0.000323568
13 *246:14 *273:61 0.000123258
14 *246:14 *281:10 7.90122e-05
15 *246:14 *299:17 0.000744968
16 *246:39 *1578:I 0.00116799
17 *246:39 *1579:I 7.53645e-05
18 dac_p[1] *1266:I 4.86061e-05
19 dac_p[1] *246:14 0.000128276
20 dac_p[4] *1266:I 0.000102323
21 dac_p[4] *246:14 1.5931e-05
22 dac_p[4] *246:39 6.01533e-05
23 dac_p[5] *246:14 0.000333633
24 samp_bot *1364:A1 0
25 *1262:I *1364:A1 0.000247389
26 *1265:I *246:14 0.000230239
27 *1351:B *1364:A1 0.000272792
28 *1351:B *246:39 0.000951316
29 *1357:A2 *246:14 0.000281467
30 *1360:B *246:14 2.49093e-05
31 *1366:B *1364:A1 0.000657584
32 *1366:B *246:39 0.000143955
33 *1373:A2 *246:14 0.00039259
34 *1493:I *246:14 0.00010823
35 *120:12 *246:39 0.000915407
36 *120:18 *246:39 0.000243393
37 *235:18 *1266:I 0.000100647
38 *245:31 *246:14 4.76218e-05
*RES
1 *1451:Q *246:14 18.36 
2 *246:14 *1266:I 10.35 
3 *246:14 *246:39 20.43 
4 *246:39 *1364:A1 16.2 
5 *246:39 *1577:I 4.5 
*END

*D_NET *247 0.0142426
*CONN
*I *1367:A1 I *D gf180mcu_fd_sc_mcu7t5v0__nand2_1
*I *1578:I I *D gf180mcu_fd_sc_mcu7t5v0__buf_2
*I *1267:I I *D gf180mcu_fd_sc_mcu7t5v0__clkinv_1
*I *1452:Q O *D gf180mcu_fd_sc_mcu7t5v0__dffrnq_1
*CAP
1 *1367:A1 0.000575111
2 *1578:I 0.000576315
3 *1267:I 0.000187953
4 *1452:Q 0
5 *247:24 0.00153713
6 *247:4 0.00134798
7 *1267:I *349:I 3.34868e-06
8 *1367:A1 *1367:A2 0.000294431
9 *1367:A1 *248:10 0.000169524
10 *1367:A1 *319:18 0.000105251
11 *1578:I *248:16 0.000523326
12 *247:24 *349:I 0.000836533
13 *247:24 *1269:I 8.31705e-06
14 *247:24 *249:12 0.000232739
15 *247:24 *273:61 3.1667e-05
16 dac_n[0] *1367:A1 0.000159952
17 dac_n[3] *1367:A1 9.85004e-05
18 dac_p[5] *1267:I 1.316e-05
19 dac_p[5] *247:24 2.43148e-05
20 dac_p[6] *1267:I 4.31567e-06
21 dac_p[7] *247:24 0.000460976
22 dac_p[8] *247:24 0.000201172
23 dac_p[9] *247:24 0.000436469
24 *1366:B *1578:I 0.000692708
25 *1451:CLK *247:24 0.000293893
26 *1564:I *247:24 0.000139681
27 *1566:I *1367:A1 0.00303178
28 *1566:I *247:24 0.000130329
29 *47:22 *1578:I 0.000256371
30 *120:12 *1578:I 0.000234284
31 *120:18 *1578:I 4.42413e-05
32 *235:18 *1367:A1 0.00021172
33 *235:18 *247:24 0.000211109
34 *246:39 *1578:I 0.00116799
*RES
1 *1452:Q *247:4 4.5 
2 *247:4 *247:24 22.41 
3 *247:24 *1267:I 9.81 
4 *247:24 *1578:I 25.74 
5 *247:4 *1367:A1 12.96 
*END

*D_NET *248 0.0367738
*CONN
*I *393:I I *D gf180mcu_fd_sc_mcu7t5v0__antenna
*I *451:I I *D gf180mcu_fd_sc_mcu7t5v0__antenna
*I *354:I I *D gf180mcu_fd_sc_mcu7t5v0__antenna
*I *1268:I I *D gf180mcu_fd_sc_mcu7t5v0__clkinv_1
*I *408:I I *D gf180mcu_fd_sc_mcu7t5v0__antenna
*I *1579:I I *D gf180mcu_fd_sc_mcu7t5v0__buf_2
*I *1370:A1 I *D gf180mcu_fd_sc_mcu7t5v0__nand2_1
*I *1453:Q O *D gf180mcu_fd_sc_mcu7t5v0__dffrnq_1
*CAP
1 *393:I 2.53002e-05
2 *451:I 0.000352682
3 *354:I 0.000207231
4 *1268:I 0
5 *408:I 0
6 *1579:I 0.00030177
7 *1370:A1 8.51897e-05
8 *1453:Q 0.000175233
9 *248:89 0.00121191
10 *248:71 0.00150168
11 *248:65 0.00569529
12 *248:48 0.00390389
13 *248:16 0.00122199
14 *248:10 0.00134723
15 *354:I *272:186 0
16 *393:I *1442:RN 1.56779e-05
17 *451:I *337:29 0.000614443
18 *1370:A1 *273:61 1.61889e-05
19 *1579:I *273:61 2.83179e-05
20 *248:10 *1367:A2 2.44668e-07
21 *248:16 *308:20 0.000884217
22 *248:48 *363:I 0.000499457
23 *248:48 *1269:I 0.001041
24 *248:48 *1367:A2 9.87947e-06
25 *248:48 *1548:I 7.39331e-05
26 *248:48 *342:30 5.30888e-06
27 *248:65 *1269:I 0.000323893
28 *248:65 *1288:B 0.000195095
29 *248:65 *1290:A1 0.000155283
30 *248:65 *1296:A1 0.000102042
31 *248:65 *1462:RN 0.000699172
32 *248:65 *1466:RN 5.40003e-05
33 *248:65 *1522:I 0.000157364
34 *248:65 *1548:I 8.10987e-05
35 *248:65 *298:14 0.0020795
36 *248:71 *272:78 0.00307066
37 *248:71 *272:186 0.000434987
38 *248:89 *1514:I 0
39 *248:89 *284:24 8.56844e-05
40 *248:89 *337:29 0.000168212
41 *248:89 *338:28 4.6308e-05
42 dac_n[0] *248:10 6.96766e-06
43 dac_p[4] *1579:I 0.000126762
44 dac_p[7] *1579:I 0.000245997
45 *350:I *451:I 0
46 *350:I *248:65 0
47 *350:I *248:89 0
48 *360:I *354:I 6.79778e-05
49 *419:I *354:I 1.35476e-05
50 *419:I *248:71 0
51 *1277:A3 *354:I 1.14052e-05
52 *1278:A2 *248:65 1.16151e-05
53 *1280:A3 *248:65 2.95568e-05
54 *1324:B *393:I 3.97987e-05
55 *1340:A2 *248:65 0.000854738
56 *1340:A2 *248:89 0.000315016
57 *1340:B *248:65 3.18816e-05
58 *1343:A2 *248:65 9.7659e-06
59 *1343:A2 *248:71 0.000311128
60 *1343:A2 *248:89 3.2553e-06
61 *1360:B *1579:I 2.65028e-05
62 *1366:B *1579:I 5.02137e-05
63 *1367:A1 *248:10 0.000169524
64 *1369:A2 *248:65 0.00012545
65 *1369:B *248:65 0
66 *1372:B *1370:A1 4.21765e-05
67 *1372:B *1579:I 7.77384e-05
68 *1372:B *248:48 2.36472e-05
69 *1377:A2 *248:65 0.000360295
70 *1407:C *248:65 0.000127133
71 *1425:D *451:I 1.6333e-06
72 *1425:D *248:89 0.000413249
73 *1443:D *248:89 5.17374e-05
74 *1443:CLK *248:89 0
75 *1449:CLK *1579:I 0.000161398
76 *1455:D *248:65 4.00744e-05
77 *1487:I *1579:I 0.000356005
78 *1499:I *248:65 0.000219241
79 *1578:I *248:16 0.000523326
80 *47:22 *248:16 0.00447042
81 *120:12 *248:16 0.000148072
82 *120:69 *248:48 2.73022e-06
83 *122:20 *248:48 0
84 *213:21 *451:I 8.40452e-05
85 *213:21 *248:89 0
86 *227:31 *354:I 9.29483e-05
87 *235:18 *248:10 5.36871e-05
88 *241:111 *451:I 0.000126461
89 *246:39 *1579:I 7.53645e-05
*RES
1 *1453:Q *248:10 10.08 
2 *248:10 *248:16 20.97 
3 *248:16 *1370:A1 9.45 
4 *248:16 *1579:I 12.51 
5 *248:10 *248:48 8.46 
6 *248:48 *408:I 4.5 
7 *248:48 *248:65 31.05 
8 *248:65 *248:71 19.89 
9 *248:71 *1268:I 9 
10 *248:71 *354:I 10.71 
11 *248:65 *248:89 6.03 
12 *248:89 *451:I 21.06 
13 *248:89 *393:I 9.27 
*END

*D_NET *249 0.00668148
*CONN
*I *1269:I I *D gf180mcu_fd_sc_mcu7t5v0__clkinv_1
*I *1580:I I *D gf180mcu_fd_sc_mcu7t5v0__buf_2
*I *1454:Q O *D gf180mcu_fd_sc_mcu7t5v0__dffrnq_1
*CAP
1 *1269:I 0.000480364
2 *1580:I 0
3 *1454:Q 0.000229835
4 *249:12 0.000710198
5 *1269:I *349:I 0.000323563
6 *1269:I *363:I 0.000206621
7 *1269:I *1454:RN 0.000430936
8 *1269:I *1548:I 2.30619e-05
9 *1269:I *1598:I 2.69605e-05
10 *1269:I *304:12 0.000223398
11 *1269:I *304:14 0.000962379
12 *249:12 *349:I 2.79072e-05
13 dac_p[7] *249:12 0
14 dac_p[8] *249:12 6.28609e-05
15 *1564:I *1269:I 0.000230932
16 *1564:I *249:12 0.000354738
17 *1567:I *1269:I 0.000556042
18 *120:69 *1269:I 0.000225735
19 *247:24 *1269:I 8.31705e-06
20 *247:24 *249:12 0.000232739
21 *248:48 *1269:I 0.001041
22 *248:65 *1269:I 0.000323893
*RES
1 *1454:Q *249:12 15.48 
2 *249:12 *1580:I 4.5 
3 *249:12 *1269:I 22.14 
*END

*D_NET *250 0.00330873
*CONN
*I *1385:I0 I *D gf180mcu_fd_sc_mcu7t5v0__mux2_2
*I *1581:I I *D gf180mcu_fd_sc_mcu7t5v0__buf_2
*I *1416:Q O *D gf180mcu_fd_sc_mcu7t5v0__dffrnq_1
*CAP
1 *1385:I0 0.000478423
2 *1581:I 0.000290354
3 *1416:Q 0
4 *250:4 0.000768778
5 *1385:I0 *404:I 0.0001907
6 *1385:I0 *285:51 0
7 *1385:I0 *289:53 0.000348062
8 *1385:I0 *314:6 0
9 *1581:I *289:38 0.000183282
10 *1581:I *289:53 0.000282238
11 *1581:I *314:6 0
12 dout[1] *1581:I 8.64138e-05
13 *405:I *1385:I0 0.000638643
14 *232:56 *1385:I0 4.18375e-05
*RES
1 *1416:Q *250:4 4.5 
2 *250:4 *1581:I 7.47 
3 *250:4 *1385:I0 18.54 
*END

*D_NET *251 0.00381171
*CONN
*I *1386:I0 I *D gf180mcu_fd_sc_mcu7t5v0__mux2_2
*I *1582:I I *D gf180mcu_fd_sc_mcu7t5v0__buf_2
*I *1417:Q O *D gf180mcu_fd_sc_mcu7t5v0__dffrnq_1
*CAP
1 *1386:I0 0.000330845
2 *1582:I 0.000256409
3 *1417:Q 0
4 *251:4 0.000587254
5 *1386:I0 *1314:A1 0.000183018
6 *1386:I0 *1385:I1 0.000425532
7 *1386:I0 *314:16 0.000503463
8 *1582:I *366:I 0.000372606
9 *1582:I *285:51 0.000516428
10 *1582:I *314:16 0.000213559
11 *1386:S *1386:I0 2.63429e-05
12 *191:20 *1386:I0 5.71404e-05
13 *241:62 *1386:I0 0.000339115
*RES
1 *1417:Q *251:4 4.5 
2 *251:4 *1582:I 16.11 
3 *251:4 *1386:I0 17.82 
*END

*D_NET *252 0.00238011
*CONN
*I *1583:I I *D gf180mcu_fd_sc_mcu7t5v0__buf_2
*I *1387:I0 I *D gf180mcu_fd_sc_mcu7t5v0__mux2_2
*I *1418:Q O *D gf180mcu_fd_sc_mcu7t5v0__dffrnq_1
*CAP
1 *1583:I 0.000136563
2 *1387:I0 0.000231181
3 *1418:Q 0.000344516
4 *252:10 0.00071226
5 *1387:I0 *404:I 0
6 *1583:I *285:51 0.000237121
7 *252:10 *396:I 0.000294431
8 *252:10 *404:I 0
9 *252:10 *1556:I 0.000294431
10 dout[2] *1583:I 6.91381e-05
11 dout[2] *252:10 5.75743e-05
12 dout[3] *1583:I 2.89427e-06
*RES
1 *1418:Q *252:10 11.88 
2 *252:10 *1387:I0 10.35 
3 *252:10 *1583:I 10.53 
*END

*D_NET *253 0.0111023
*CONN
*I *1522:I I *D gf180mcu_fd_sc_mcu7t5v0__dlyb_1
*I *1521:I I *D gf180mcu_fd_sc_mcu7t5v0__buf_2
*I *1541:Z O *D gf180mcu_fd_sc_mcu7t5v0__dlyb_1
*CAP
1 *1522:I 0.000307651
2 *1521:I 0.00136233
3 *1541:Z 0.00326266
4 *253:10 0.00493265
5 *1521:I *1305:B 6.21801e-05
6 *1521:I *1550:I 0.000163342
7 *1521:I *274:47 2.39789e-05
8 *1521:I *276:14 0.000643424
9 *1369:A2 *1522:I 2.96775e-05
10 *96:12 *1521:I 0.000157039
11 *248:65 *1522:I 0.000157364
*RES
1 *1541:Z *253:10 26.55 
2 *253:10 *1521:I 20.43 
3 *253:10 *1522:I 15.57 
*END

*D_NET *254 0.00514905
*CONN
*I *1388:I0 I *D gf180mcu_fd_sc_mcu7t5v0__mux2_2
*I *1584:I I *D gf180mcu_fd_sc_mcu7t5v0__buf_2
*I *1419:Q O *D gf180mcu_fd_sc_mcu7t5v0__dffrnq_1
*CAP
1 *1388:I0 0
2 *1584:I 0.000187731
3 *1419:Q 0.000660832
4 *254:12 0.000848563
5 *1584:I *392:I 0.000310002
6 *1584:I *285:51 0.000913822
7 *254:12 *366:I 0.00127651
8 *254:12 *392:I 0.000507133
9 *254:12 *1420:RN 7.01335e-05
10 *254:12 *1556:I 5.87467e-05
11 dout[2] *254:12 0
12 dout[3] *1584:I 0.000117534
13 *1387:S *1584:I 0.000166798
14 *232:18 *1584:I 3.12451e-05
*RES
1 *1419:Q *254:12 15.39 
2 *254:12 *1584:I 12.24 
3 *254:12 *1388:I0 9 
*END

*D_NET *255 0.00302307
*CONN
*I *1389:I0 I *D gf180mcu_fd_sc_mcu7t5v0__mux2_2
*I *1585:I I *D gf180mcu_fd_sc_mcu7t5v0__buf_2
*I *1420:Q O *D gf180mcu_fd_sc_mcu7t5v0__dffrnq_1
*CAP
1 *1389:I0 0.000119937
2 *1585:I 0.000162345
3 *1420:Q 0.000481873
4 *255:10 0.000764155
5 *1389:I0 *1419:RN 1.92032e-05
6 *1389:I0 *1420:RN 0.000101616
7 *1389:I0 *1530:I 0.00105688
8 *255:10 *1420:RN 1.80086e-05
9 dout[3] *1389:I0 0.000233578
10 dout[4] *1389:I0 3.78905e-05
11 *232:16 *1585:I 2.29914e-05
12 *232:16 *255:10 4.59827e-06
*RES
1 *1420:Q *255:10 11.52 
2 *255:10 *1585:I 9.81 
3 *255:10 *1389:I0 11.79 
*END

*D_NET *256 0.00951202
*CONN
*I *1586:I I *D gf180mcu_fd_sc_mcu7t5v0__buf_2
*I *1390:I0 I *D gf180mcu_fd_sc_mcu7t5v0__mux2_2
*I *1421:Q O *D gf180mcu_fd_sc_mcu7t5v0__dffrnq_1
*CAP
1 *1586:I 0.000285632
2 *1390:I0 0.00027502
3 *1421:Q 0.000476218
4 *256:10 0.00103687
5 *1390:I0 *1390:S 0.00302899
6 *1586:I *1513:I 0.000291749
7 *1586:I *1530:I 0.00012088
8 *1586:I *274:159 0.000147967
9 *1586:I *283:8 5.28618e-05
10 *256:10 *1390:S 7.03219e-05
11 *256:10 *1557:I 0
12 *256:10 *285:27 3.59638e-05
13 *397:I *1390:I0 0.000746288
14 *397:I *256:10 0.000801837
15 *441:I *256:10 1.5302e-05
16 *1421:D *1390:I0 0.00212612
*RES
1 *1421:Q *256:10 12.6 
2 *256:10 *1390:I0 17.37 
3 *256:10 *1586:I 11.79 
*END

*D_NET *257 0.0127105
*CONN
*I *1587:I I *D gf180mcu_fd_sc_mcu7t5v0__buf_2
*I *1391:I0 I *D gf180mcu_fd_sc_mcu7t5v0__mux2_2
*I *1422:Q O *D gf180mcu_fd_sc_mcu7t5v0__dffrnq_1
*CAP
1 *1587:I 0.00131793
2 *1391:I0 0.00113966
3 *1422:Q 0.000176593
4 *257:8 0.00263418
5 *1391:I0 *373:I 0
6 *1391:I0 *1323:A1 1.44713e-05
7 *1391:I0 *1531:I 0.000696172
8 *1391:I0 *1532:I 0.000448392
9 *1391:I0 *274:183 0
10 *1391:I0 *284:12 0.000477976
11 *1391:I0 *285:21 1.94121e-05
12 *1391:I0 *318:10 0.0004175
13 *1587:I *433:I 0.00039726
14 *1587:I *1423:RN 1.56374e-05
15 *1587:I *1588:I 0
16 *1587:I *260:12 0.000220703
17 *1587:I *285:27 0.000284804
18 *1587:I *323:16 0.00236371
19 *1587:I *326:10 0.000462395
20 *1587:I *326:23 0.000256631
21 *1587:I *326:27 2.52103e-05
22 *257:8 *373:I 0
23 *257:8 *285:21 1.3026e-05
24 dout[5] *257:8 0
25 dout[7] *1587:I 8.31821e-05
26 dout[9] *1587:I 5.50498e-05
27 *441:I *1587:I 0
28 *442:I *1587:I 9.55009e-05
29 *1324:B *1391:I0 0.000418055
30 *1335:B *1391:I0 0.000492928
31 *1422:D *1391:I0 3.41666e-06
32 *1535:I *1587:I 0
33 *191:34 *1391:I0 5.2092e-05
34 *208:249 *1391:I0 9.12715e-05
35 *241:111 *1391:I0 3.73247e-05
*RES
1 *1422:Q *257:8 9.99 
2 *257:8 *1391:I0 28.98 
3 *257:8 *1587:I 23.76 
*END

*D_NET *258 0.00822617
*CONN
*I *1588:I I *D gf180mcu_fd_sc_mcu7t5v0__buf_2
*I *1392:I0 I *D gf180mcu_fd_sc_mcu7t5v0__mux2_2
*I *1423:Q O *D gf180mcu_fd_sc_mcu7t5v0__dffrnq_1
*CAP
1 *1588:I 0.000520559
2 *1392:I0 0.000676896
3 *1423:Q 0.000400863
4 *258:8 0.00159832
5 *1392:I0 *1392:I1 0.000147005
6 *1392:I0 *1394:I0 0.000358558
7 *1392:I0 *260:12 1.07281e-05
8 *1392:I0 *284:24 4.6613e-06
9 *1392:I0 *284:31 2.40834e-05
10 *1588:I *1423:RN 8.51055e-05
11 *1588:I *1560:I 5.79059e-06
12 *1588:I *1590:I 0.00208388
13 *1588:I *326:27 0
14 *258:8 *260:12 0.000164143
15 dout[7] *1588:I 5.28947e-05
16 *350:I *1392:I0 0.000488866
17 *350:I *1588:I 0.000350144
18 *350:I *258:8 2.63343e-05
19 *1423:D *1392:I0 0.001182
20 *1425:D *1392:I0 3.08015e-05
21 *1587:I *1588:I 0
22 *208:279 *1392:I0 1.45377e-05
*RES
1 *1423:Q *258:8 11.79 
2 *258:8 *1392:I0 16.38 
3 *258:8 *1588:I 15.48 
*END

*D_NET *259 0.00347115
*CONN
*I *1589:I I *D gf180mcu_fd_sc_mcu7t5v0__buf_2
*I *1393:I0 I *D gf180mcu_fd_sc_mcu7t5v0__mux2_2
*I *1424:Q O *D gf180mcu_fd_sc_mcu7t5v0__dffrnq_1
*CAP
1 *1589:I 0.000387358
2 *1393:I0 0.00126159
3 *1424:Q 0.000874234
4 *1393:I0 *1393:S 2.43561e-05
5 *1393:I0 *1423:RN 5.81424e-06
6 *1393:I0 *1533:I 9.2838e-05
7 *1393:I0 *1560:I 0.000103269
8 *1393:I0 *1590:I 0.000355253
9 *1393:I0 *323:16 4.95294e-05
10 *1393:I0 *324:23 4.98049e-05
11 *1589:I *1393:S 1.61174e-05
12 *1589:I *1533:I 0
13 *1589:I *1590:I 2.68959e-06
14 dout[7] *1393:I0 0.00017813
15 dout[8] *1589:I 7.01651e-05
*RES
1 *1424:Q *1393:I0 25.47 
2 *1393:I0 *1589:I 11.79 
*END

*D_NET *260 0.00940062
*CONN
*I *1590:I I *D gf180mcu_fd_sc_mcu7t5v0__buf_2
*I *1394:I0 I *D gf180mcu_fd_sc_mcu7t5v0__mux2_2
*I *1425:Q O *D gf180mcu_fd_sc_mcu7t5v0__dffrnq_1
*CAP
1 *1590:I 0.000689119
2 *1394:I0 0.00070024
3 *1425:Q 0.000737402
4 *260:12 0.00212676
5 *1394:I0 *1393:S 2.07602e-05
6 *1394:I0 *284:31 3.90954e-05
7 *1394:I0 *323:16 6.27291e-05
8 *1590:I *323:16 0
9 *260:12 *433:I 0.000302466
10 *260:12 *323:16 8.4663e-05
11 dout[8] *1590:I 4.76678e-05
12 *441:I *260:12 0.000158418
13 *1392:I0 *1394:I0 0.000358558
14 *1392:I0 *260:12 1.07281e-05
15 *1393:I0 *1590:I 0.000355253
16 *1474:I *1394:I0 0.00037458
17 *1535:I *1590:I 0.000575012
18 *1587:I *260:12 0.000220703
19 *1588:I *1590:I 0.00208388
20 *1589:I *1590:I 2.68959e-06
21 *146:34 *1394:I0 8.37046e-05
22 *208:279 *1394:I0 0.000202051
23 *258:8 *260:12 0.000164143
*RES
1 *1425:Q *260:12 15.21 
2 *260:12 *1394:I0 15.3 
3 *260:12 *1590:I 17.55 
*END

*D_NET *261 0.0123179
*CONN
*I *1591:I I *D gf180mcu_fd_sc_mcu7t5v0__buf_2
*I *1468:I I *D gf180mcu_fd_sc_mcu7t5v0__buf_1
*I *1467:Q O *D gf180mcu_fd_sc_mcu7t5v0__dffrnq_1
*CAP
1 *1591:I 0.000634303
2 *1468:I 0.000395678
3 *1467:Q 0.000259392
4 *261:8 0.00128937
5 *1468:I *1309:A1 0.000269346
6 *1468:I *1309:A2 3.12451e-05
7 *1468:I *1436:RN 0.000217328
8 *1468:I *1592:I 0.000167228
9 *1468:I *328:43 0.000145907
10 *1591:I *1303:A1 2.88603e-05
11 *1591:I *1309:A2 8.56918e-05
12 *1591:I *1327:A2 0.00349924
13 *1591:I *276:114 3.73774e-06
14 *1591:I *285:51 0.00100242
15 *261:8 *1303:A1 1.56087e-05
16 *261:8 *1592:I 0.000321505
17 *261:8 *276:91 7.97785e-05
18 dout_valid *1591:I 3.94291e-05
19 *353:I *1468:I 4.82027e-05
20 *1310:B *261:8 0.0010243
21 *1315:B *1591:I 4.0497e-05
22 *1328:B *1468:I 0.000369002
23 *1347:A2 *1591:I 0.00142733
24 *1347:A2 *261:8 0.00048926
25 *1437:D *1468:I 0.000150744
26 *136:32 *261:8 0.000282504
27 *191:20 *1591:I 0
*RES
1 *1467:Q *261:8 13.59 
2 *261:8 *1468:I 21.96 
3 *261:8 *1591:I 20.79 
*END

*D_NET *262 0.00346335
*CONN
*I *1592:I I *D gf180mcu_fd_sc_mcu7t5v0__buf_2
*I *1468:Z O *D gf180mcu_fd_sc_mcu7t5v0__buf_1
*CAP
1 *1592:I 0.000501826
2 *1468:Z 0.000501826
3 *1592:I *1303:A1 0.000161845
4 *1592:I *1309:A2 1.27836e-05
5 *1592:I *1327:A2 0
6 *1592:I *1347:A1 0.00030858
7 *1592:I *1436:RN 0.000229831
8 *1592:I *269:44 5.69749e-05
9 *1592:I *276:91 0.000109071
10 *1592:I *277:63 8.53098e-05
11 *1437:D *1592:I 0.00100657
12 *1468:I *1592:I 0.000167228
13 *1494:I *1592:I 0
14 *261:8 *1592:I 0.000321505
*RES
1 *1468:Z *1592:I 24.21 
*END

*D_NET *263 0.0163931
*CONN
*I *1378:A2 I *D gf180mcu_fd_sc_mcu7t5v0__nor2_1
*I *1593:I I *D gf180mcu_fd_sc_mcu7t5v0__buf_2
*I *1456:Q O *D gf180mcu_fd_sc_mcu7t5v0__dffrnq_1
*CAP
1 *1378:A2 0.00222887
2 *1593:I 0.000122009
3 *1456:Q 0.000429078
4 *263:10 0.00277996
5 *1378:A2 *1378:A1 1.0415e-05
6 *1378:A2 *1395:A2 0.00645119
7 *1378:A2 *1594:I 2.23818e-05
8 *1378:A2 *264:8 0
9 *1378:A2 *276:91 0.000247379
10 *1593:I *1594:I 0.00141965
11 *263:10 *1310:A1 0.00020625
12 *263:10 *1426:RN 1.26863e-05
13 *263:10 *296:69 5.72289e-05
14 *1310:A2 *1378:A2 0.000676974
15 *1310:A2 *263:10 0.000272782
16 *1310:B *263:10 3.31835e-05
17 *1351:A2 *1378:A2 0.000300296
18 *1351:A2 *1593:I 0.000631995
19 *1436:D *263:10 0.000215317
20 *1447:D *263:10 0.00027541
*RES
1 *1456:Q *263:10 12.6 
2 *263:10 *1593:I 12.87 
3 *263:10 *1378:A2 40.14 
*END

*D_NET *264 0.0159867
*CONN
*I *1395:A2 I *D gf180mcu_fd_sc_mcu7t5v0__nor2_1
*I *1594:I I *D gf180mcu_fd_sc_mcu7t5v0__buf_2
*I *1426:Q O *D gf180mcu_fd_sc_mcu7t5v0__dffrnq_1
*CAP
1 *1395:A2 0.00173831
2 *1594:I 0.000811629
3 *1426:Q 0.000187098
4 *264:8 0.00273704
5 *1395:A2 *1378:A1 7.191e-07
6 *1395:A2 *269:44 0.000205477
7 *1395:A2 *276:91 0.000248637
8 *1395:A2 *276:114 0.000684995
9 *1310:A2 *1395:A2 0.000285641
10 *1310:A2 *264:8 0.000394591
11 *1351:A2 *1594:I 0.000229055
12 *1378:A2 *1395:A2 0.00645119
13 *1378:A2 *1594:I 2.23818e-05
14 *1378:A2 *264:8 0
15 *1436:D *264:8 0.000430103
16 *1593:I *1594:I 0.00141965
17 *7:26 *1594:I 0.000140141
*RES
1 *1426:Q *264:8 10.89 
2 *264:8 *1594:I 16.65 
3 *264:8 *1395:A2 30.6 
*END

*D_NET *265 0.0179532
*CONN
*I *1376:B I *D gf180mcu_fd_sc_mcu7t5v0__aoi21_1
*I *1595:I I *D gf180mcu_fd_sc_mcu7t5v0__buf_2
*I *1455:Q O *D gf180mcu_fd_sc_mcu7t5v0__dffrnq_1
*CAP
1 *1376:B 0.000277479
2 *1595:I 2.92405e-05
3 *1455:Q 0.000466268
4 *265:38 0.00258559
5 *265:14 0.0033001
6 *1376:B *431:I 0.000158639
7 *1376:B *1287:A1 8.56844e-05
8 *1376:B *280:72 0.000285653
9 *1376:B *287:44 0.000604387
10 *1376:B *287:46 0.000467419
11 *265:14 *1345:A1 0.000301768
12 *265:38 *391:I 2.05453e-05
13 *265:38 *1271:A1 1.71254e-05
14 *265:38 *1345:A1 9.37835e-05
15 *265:38 *1363:A1 0
16 *265:38 *1379:A1 9.82968e-06
17 *265:38 *1598:I 0.00133874
18 *265:38 *272:31 0
19 *265:38 *281:35 1.5438e-05
20 *265:38 *296:46 0.0027315
21 samp_bot *265:38 5.99875e-05
22 *1262:I *1595:I 0
23 *1262:I *265:38 0.000144332
24 *1351:A2 *1595:I 9.30128e-05
25 *1354:B *265:38 0.000429396
26 *1374:B2 *1376:B 0.00023813
27 *1448:CLK *265:38 0.00013442
28 *1452:D *265:14 3.05108e-05
29 *1452:D *265:38 0.000286769
30 *1454:D *265:38 0.000154135
31 *1478:I *265:38 3.82204e-05
32 *1487:I *265:38 0.000167015
33 *1498:I *265:14 0
34 *1503:I *265:38 0.00137264
35 *1504:I *1376:B 0.00113139
36 *1510:I *265:38 3.16711e-05
37 *1575:I *265:38 0.00019974
38 *109:24 *265:38 0.000413077
39 *165:6 *265:14 0.000105954
40 *223:36 *265:14 8.54857e-06
41 *229:22 *265:38 0.000125102
*RES
1 *1455:Q *265:14 16.11 
2 *265:14 *265:38 45.81 
3 *265:38 *1595:I 9.27 
4 *265:14 *1376:B 18.63 
*END

*D_NET *266 0.0105165
*CONN
*I *1362:B I *D gf180mcu_fd_sc_mcu7t5v0__aoi211_2
*I *1330:A2 I *D gf180mcu_fd_sc_mcu7t5v0__aoi21_1
*I *1562:Z O *D gf180mcu_fd_sc_mcu7t5v0__clkbuf_1
*CAP
1 *1362:B 0.00023214
2 *1330:A2 7.65363e-05
3 *1562:Z 0.000901217
4 *266:20 0.00120989
5 *1330:A2 *1326:A1 5.51536e-05
6 *1330:A2 *290:34 0.000478762
7 *1330:A2 *327:55 2.69401e-05
8 *1362:B *374:I 2.73022e-06
9 *1362:B *1330:B 9.67415e-05
10 *1362:B *1390:I1 0.000404619
11 *1362:B *290:10 6.78403e-06
12 *1362:B *335:31 3.7795e-05
13 *266:20 *374:I 2.23197e-05
14 *266:20 *1331:A1 0.00166504
15 *266:20 *1371:C 5.31089e-05
16 *266:20 *274:97 0.000619783
17 *266:20 *274:155 8.68398e-06
18 *1329:A3 *266:20 0.000362293
19 *1338:A2 *266:20 0.00023711
20 *1365:A1 *1330:A2 0.000616462
21 *1368:A1 *266:20 7.191e-07
22 *1368:A2 *266:20 0.000184689
23 *1369:A2 *266:20 0.000283705
24 *1371:B *266:20 0.000239608
25 *1518:I *266:20 6.22708e-05
26 *147:22 *266:20 0.000403141
27 *170:26 *266:20 0.000200749
28 *177:24 *1362:B 0.000119453
29 *177:24 *266:20 0.00107667
30 *207:12 *266:20 0.000150744
31 *243:67 *266:20 0.00068065
*RES
1 *1562:Z *266:20 30.69 
2 *266:20 *1330:A2 10.98 
3 *266:20 *1362:B 10.8 
*END

*D_NET *267 0.0082419
*CONN
*I *1362:A2 I *D gf180mcu_fd_sc_mcu7t5v0__aoi211_2
*I *1326:A2 I *D gf180mcu_fd_sc_mcu7t5v0__aoi21_1
*I *1563:Z O *D gf180mcu_fd_sc_mcu7t5v0__clkbuf_1
*CAP
1 *1362:A2 0.000351312
2 *1326:A2 0
3 *1563:Z 0.00119998
4 *267:18 0.00155129
5 *1362:A2 *1326:A1 8.50785e-05
6 *1362:A2 *1330:B 0.000177379
7 *1362:A2 *1437:RN 3.55625e-06
8 *1362:A2 *327:55 6.18903e-05
9 *1362:A2 *335:49 0.000321412
10 *267:18 *392:I 2.24058e-05
11 *267:18 *1437:RN 0
12 *267:18 *268:31 0.000247379
13 *267:18 *334:24 6.50688e-06
14 *267:18 *335:49 9.85004e-05
15 *423:I *267:18 4.6613e-06
16 *1320:B *267:18 5.78854e-06
17 *1332:A2 *1362:A2 0.00036229
18 *1359:B *267:18 0.000139741
19 *1365:A1 *267:18 3.45705e-05
20 *1482:I *1362:A2 3.22348e-05
21 *1496:I *267:18 0.000537191
22 *1563:I *267:18 0.00216465
23 *144:25 *267:18 0.000146277
24 *208:131 *1362:A2 0.000151427
25 *208:147 *267:18 9.60638e-05
26 *208:151 *267:18 0.000440325
*RES
1 *1563:Z *267:18 25.29 
2 *267:18 *1326:A2 4.5 
3 *267:18 *1362:A2 9 
*END

*D_NET *268 0.00779008
*CONN
*I *1356:B1 I *D gf180mcu_fd_sc_mcu7t5v0__aoi221_2
*I *1359:A2 I *D gf180mcu_fd_sc_mcu7t5v0__aoi211_2
*I *1322:A2 I *D gf180mcu_fd_sc_mcu7t5v0__aoi21_1
*I *1365:A2 I *D gf180mcu_fd_sc_mcu7t5v0__aoi221_2
*I *1544:Z O *D gf180mcu_fd_sc_mcu7t5v0__buf_2
*CAP
1 *1356:B1 0
2 *1359:A2 0
3 *1322:A2 0.000381911
4 *1365:A2 0.000306116
5 *1544:Z 0
6 *268:31 0.000493117
7 *268:25 0.000849795
8 *268:4 0.00104471
9 *1322:A2 *392:I 1.55668e-05
10 *1322:A2 *1437:RN 3.73774e-06
11 *1322:A2 *328:60 5.57662e-05
12 *1365:A2 *1331:A1 7.95083e-05
13 *1365:A2 *336:31 0.000339013
14 *268:25 *368:I 0.000108118
15 *268:25 *290:40 3.16864e-05
16 *268:31 *392:I 0.000128297
17 *268:31 *272:59 0.000518636
18 *1312:A1 *268:25 2.72423e-05
19 *1325:A1 *268:25 1.37521e-05
20 *1328:B *268:25 0.00109269
21 *1341:A1 *268:25 0.000345267
22 *1356:A2 *268:31 0.000334975
23 *1359:A1 *1322:A2 1.81014e-05
24 *1359:B *268:31 1.74705e-05
25 *1360:A2 *1322:A2 0.000168592
26 *1365:A1 *1322:A2 0
27 *1544:I *1365:A2 2.30981e-05
28 *1544:I *268:25 4.6443e-05
29 *132:14 *1322:A2 4.41833e-05
30 *132:16 *1322:A2 4.6613e-06
31 *143:14 *1322:A2 3.12451e-05
32 *143:31 *1322:A2 1.20074e-05
33 *144:25 *268:31 0.000660384
34 *144:52 *1365:A2 3.58674e-05
35 *144:52 *268:25 5.8657e-05
36 *147:22 *1365:A2 4.45165e-05
37 *172:22 *1365:A2 0.0001114
38 *243:67 *1365:A2 9.61678e-05
39 *267:18 *268:31 0.000247379
*RES
1 *1544:Z *268:4 4.5 
2 *268:4 *1365:A2 16.38 
3 *268:4 *268:25 6.48 
4 *268:25 *268:31 11.79 
5 *268:31 *1322:A2 7.11 
6 *268:31 *1359:A2 4.5 
7 *268:25 *1356:B1 4.5 
*END

*D_NET *269 0.0243151
*CONN
*I *1306:A2 I *D gf180mcu_fd_sc_mcu7t5v0__oai21_1
*I *1324:A1 I *D gf180mcu_fd_sc_mcu7t5v0__oai21_1
*I *1320:A1 I *D gf180mcu_fd_sc_mcu7t5v0__oai21_1
*I *1315:A1 I *D gf180mcu_fd_sc_mcu7t5v0__oai21_1
*I *1398:I0 I *D gf180mcu_fd_sc_mcu7t5v0__mux2_2
*I *1310:A1 I *D gf180mcu_fd_sc_mcu7t5v0__oai21_1
*I *1501:Z O *D gf180mcu_fd_sc_mcu7t5v0__dlyb_1
*CAP
1 *1306:A2 0
2 *1324:A1 0.000376117
3 *1320:A1 0
4 *1315:A1 0
5 *1398:I0 4.87768e-05
6 *1310:A1 0.000135507
7 *1501:Z 0.000785576
8 *269:69 0.000569989
9 *269:65 0.00132409
10 *269:44 0.00165987
11 *269:29 0.000978631
12 *269:10 0.00132128
13 *1310:A1 *1291:A1 0.000481965
14 *269:10 *276:46 0.00240086
15 *269:10 *276:77 3.66781e-06
16 *269:10 *285:57 5.53121e-05
17 *269:10 *340:18 0.00033609
18 *269:10 *340:37 6.38398e-05
19 *269:29 *1291:A1 8.68338e-05
20 *269:44 *1347:A1 9.7763e-05
21 *269:44 *276:91 0.00274826
22 *269:65 *1303:A1 0.00168359
23 *269:65 *1327:A2 0.000219778
24 *269:65 *1385:I1 9.71964e-06
25 *269:65 *276:91 0
26 *269:65 *289:14 0.000214148
27 *269:65 *289:25 0.000247389
28 *269:65 *314:16 7.73347e-05
29 *269:69 *289:14 0.000608166
30 *1306:A1 *269:65 2.08301e-05
31 *1308:A2 *269:29 0
32 *1310:A2 *1310:A1 0.000242426
33 *1310:A2 *269:10 2.60586e-05
34 *1310:A2 *269:44 0.000649986
35 *1310:B *1310:A1 9.11647e-05
36 *1310:B *269:29 0.000253938
37 *1315:A2 *269:65 0.000714596
38 *1315:B *269:44 0.000174497
39 *1315:B *269:65 0.000922907
40 *1320:B *1324:A1 0.000128255
41 *1324:A2 *1324:A1 0.000276159
42 *1351:A2 *269:29 0.000196821
43 *1395:A2 *269:44 0.000205477
44 *1398:S *1398:I0 3.43442e-05
45 *1398:S *269:29 0.000307908
46 *1416:D *269:65 1.27836e-05
47 *1416:CLK *269:65 0.000486059
48 *1418:CLK *1324:A1 0.000444513
49 *1435:D *269:65 0.000220513
50 *1436:D *269:10 4.92317e-05
51 *1437:D *269:65 1.61174e-05
52 *1445:D *1310:A1 8.9944e-05
53 *1445:D *269:29 0.000445488
54 *1447:CLK *269:10 0.000341006
55 *1563:I *1324:A1 5.2861e-06
56 *1592:I *269:44 5.69749e-05
57 *7:26 *269:44 0.000162435
58 *7:26 *269:65 0.000110796
59 *191:20 *1324:A1 1.20716e-05
60 *191:20 *269:65 2.13236e-05
61 *222:18 *1324:A1 5.23893e-05
62 *241:62 *269:65 0.000354738
63 *241:88 *1324:A1 0.000374478
64 *241:88 *269:65 1.84368e-05
65 *241:88 *269:69 5.43436e-05
66 *263:10 *1310:A1 0.00020625
*RES
1 *1501:Z *269:10 17.64 
2 *269:10 *1310:A1 11.16 
3 *269:10 *269:29 8.73 
4 *269:29 *1398:I0 4.77 
5 *269:29 *269:44 17.46 
6 *269:44 *1315:A1 4.5 
7 *269:44 *269:65 23.4 
8 *269:65 *269:69 2.16 
9 *269:69 *1320:A1 4.5 
10 *269:69 *1324:A1 9.54 
11 *269:65 *1306:A2 4.5 
*END

*D_NET *270 0.0110332
*CONN
*I *1335:A1 I *D gf180mcu_fd_sc_mcu7t5v0__oai21_1
*I *1340:A1 I *D gf180mcu_fd_sc_mcu7t5v0__oai21_1
*I *1332:A1 I *D gf180mcu_fd_sc_mcu7t5v0__oai21_1
*I *1328:A1 I *D gf180mcu_fd_sc_mcu7t5v0__oai21_1
*I *1344:A1 I *D gf180mcu_fd_sc_mcu7t5v0__oai21_1
*I *1502:Z O *D gf180mcu_fd_sc_mcu7t5v0__dlyb_1
*CAP
1 *1335:A1 0.000393138
2 *1340:A1 0.000229512
3 *1332:A1 0
4 *1328:A1 0.00049635
5 *1344:A1 0.000126292
6 *1502:Z 0
7 *270:37 0.000949678
8 *270:16 0.000686595
9 *270:10 0.000476708
10 *270:6 0.00053336
11 *1328:A1 *355:I 0.000816394
12 *1328:A1 *1323:A1 7.45615e-05
13 *1328:A1 *290:10 5.61844e-05
14 *1328:A1 *327:53 7.65324e-05
15 *1328:A1 *336:31 0.000164219
16 *1335:A1 *1514:I 1.04303e-05
17 *1335:A1 *1531:I 9.98558e-05
18 *1335:A1 *1532:I 5.49979e-05
19 *1335:A1 *337:43 6.0354e-06
20 *1340:A1 *276:192 6.36368e-05
21 *1344:A1 *274:155 0.000209629
22 *270:10 *1514:I 0
23 *270:10 *338:28 2.25637e-05
24 *270:16 *276:192 4.68456e-05
25 *270:37 *406:I 2.76118e-05
26 *270:37 *1333:B 5.69399e-05
27 *270:37 *1390:I1 2.40138e-05
28 *270:37 *274:155 0.000208056
29 *270:37 *276:192 0.000532416
30 *270:37 *327:53 0.00048874
31 *270:37 *336:16 3.54649e-05
32 *412:I *1344:A1 2.09515e-05
33 *412:I *270:10 0.000153424
34 *412:I *270:37 5.19401e-05
35 *1332:A2 *1328:A1 0.000215362
36 *1332:B *270:37 8.32707e-05
37 *1333:A1 *270:37 0.00035029
38 *1335:A2 *270:37 5.30751e-05
39 *1335:B *1335:A1 2.2374e-05
40 *1340:A2 *1340:A1 0.000172257
41 *1344:A2 *1344:A1 9.20698e-05
42 *1344:B *1340:A1 0.00131232
43 *1344:B *1344:A1 2.60524e-05
44 *1344:B *270:16 0.000302467
45 *1344:B *270:37 6.12687e-06
46 *1440:D *1328:A1 0.000152033
47 *1441:D *270:37 0.000302487
48 *1442:D *1335:A1 9.5155e-05
49 *1443:CLK *1340:A1 0.000116007
50 *1444:D *1344:A1 8.42533e-05
51 *208:251 *1335:A1 0.000111294
52 *208:251 *270:10 6.72564e-05
53 *243:67 *1328:A1 0.00015863
54 *243:101 *1328:A1 0.000117296
*RES
1 *1502:Z *270:6 9 
2 *270:6 *270:10 5.85 
3 *270:10 *270:16 5.58 
4 *270:16 *1344:A1 10.17 
5 *270:16 *270:37 10.17 
6 *270:37 *1328:A1 18.99 
7 *270:37 *1332:A1 4.5 
8 *270:10 *1340:A1 8.19 
9 *270:6 *1335:A1 11.43 
*END

*D_NET *271 0.00551983
*CONN
*I *1298:A3 I *D gf180mcu_fd_sc_mcu7t5v0__or3_1
*I *1414:A4 I *D gf180mcu_fd_sc_mcu7t5v0__or4_1
*I *1300:B I *D gf180mcu_fd_sc_mcu7t5v0__aoi211_2
*I *1545:Z O *D gf180mcu_fd_sc_mcu7t5v0__clkbuf_1
*CAP
1 *1298:A3 0.000137181
2 *1414:A4 0
3 *1300:B 0.000508773
4 *1545:Z 0.000539344
5 *271:8 0.000910936
6 *1298:A3 *1346:A2 0.000150744
7 *1298:A3 *310:16 0.000341445
8 *271:8 *310:16 7.76898e-05
9 *1279:A1 *271:8 1.46655e-05
10 *1431:CLK *1300:B 0.00019681
11 *1431:CLK *271:8 0.000342793
12 *1466:D *1298:A3 3.32984e-05
13 *1545:I *271:8 5.20752e-05
14 *123:52 *1300:B 3.7795e-05
15 *123:65 *1300:B 0.000159704
16 *127:12 *1300:B 0.000113828
17 *127:12 *271:8 0.00030928
18 *198:26 *1300:B 0.00118859
19 *211:52 *1300:B 0.000404878
*RES
1 *1545:Z *271:8 8.64 
2 *271:8 *1300:B 9.54 
3 *271:8 *1414:A4 4.5 
4 *1300:B *1298:A3 10.44 
*END

*D_NET *272 0.0546855
*CONN
*I *392:I I *D gf180mcu_fd_sc_mcu7t5v0__antenna
*I *388:I I *D gf180mcu_fd_sc_mcu7t5v0__antenna
*I *1355:A2 I *D gf180mcu_fd_sc_mcu7t5v0__nand2_1
*I *1352:A2 I *D gf180mcu_fd_sc_mcu7t5v0__nand2_1
*I *377:I I *D gf180mcu_fd_sc_mcu7t5v0__antenna
*I *1349:A2 I *D gf180mcu_fd_sc_mcu7t5v0__nand2_1
*I *1346:A2 I *D gf180mcu_fd_sc_mcu7t5v0__nand2_1
*I *380:I I *D gf180mcu_fd_sc_mcu7t5v0__antenna
*I *384:I I *D gf180mcu_fd_sc_mcu7t5v0__antenna
*I *429:I I *D gf180mcu_fd_sc_mcu7t5v0__antenna
*I *1358:A2 I *D gf180mcu_fd_sc_mcu7t5v0__nand2_1
*I *1361:A2 I *D gf180mcu_fd_sc_mcu7t5v0__nand2_1
*I *391:I I *D gf180mcu_fd_sc_mcu7t5v0__antenna
*I *1503:Z O *D gf180mcu_fd_sc_mcu7t5v0__dlyb_1
*CAP
1 *392:I 0.00157382
2 *388:I 0
3 *1355:A2 0.000141616
4 *1352:A2 0
5 *377:I 0.000414301
6 *1349:A2 0.000209669
7 *1346:A2 0.000117088
8 *380:I 0.00071073
9 *384:I 0
10 *429:I 0.000125727
11 *1358:A2 0
12 *1361:A2 0.000550845
13 *391:I 0.00108972
14 *1503:Z 0
15 *272:186 0.000600914
16 *272:125 0.000985129
17 *272:117 0.000944599
18 *272:109 0.00141377
19 *272:97 0.000546613
20 *272:86 0.00020767
21 *272:78 0.00117152
22 *272:63 0.00245591
23 *272:59 0.0049143
24 *272:46 0.00205044
25 *272:31 0.00136824
26 *272:4 0.00149629
27 *377:I *310:16 1.44234e-05
28 *380:I *1601:I 1.14649e-05
29 *380:I *344:27 0.000656833
30 *380:I *344:31 9.19699e-05
31 *391:I *1448:RN 6.34298e-06
32 *391:I *1449:RN 2.44411e-05
33 *392:I *1356:C 6.96766e-06
34 *392:I *1388:I1 0.000551926
35 *392:I *333:16 0.00152225
36 *392:I *333:22 0.000691399
37 *392:I *334:24 0
38 *429:I *327:20 4.71134e-06
39 *429:I *338:28 4.82043e-05
40 *1346:A2 *310:16 0.000100393
41 *1349:A2 *344:27 0.000236488
42 *1355:A2 *444:I 0.000325634
43 *1361:A2 *1549:I 5.41381e-05
44 *1361:A2 *289:99 0.000369329
45 *272:31 *1449:RN 8.68281e-06
46 *272:46 *1373:B 0.000140719
47 *272:59 *1258:I 3.94291e-05
48 *272:59 *1356:A1 0.000497796
49 *272:59 *277:12 0
50 *272:63 *1319:A1 0.00209707
51 *272:78 *1319:A1 0.00126708
52 *272:97 *325:8 0.00024186
53 *272:97 *325:12 0.000491996
54 *272:109 *296:116 0.000212277
55 *272:109 *325:12 0.000715503
56 *272:117 *310:16 0.000183585
57 *272:125 *310:16 5.86328e-05
58 *272:125 *344:27 0.000274969
59 dac_p[1] *272:31 0.000201541
60 dac_p[1] *272:46 0.000134526
61 dac_p[1] *272:59 1.13657e-05
62 *354:I *272:186 0
63 *378:I *377:I 0.000439413
64 *378:I *272:117 0.0012132
65 *381:I *272:117 6.1299e-06
66 *382:I *1355:A2 9.74182e-05
67 *382:I *272:86 0.000215647
68 *382:I *272:97 0.000683416
69 *382:I *272:109 0.00169321
70 *382:I *272:186 5.4942e-06
71 *386:I *1355:A2 8.56844e-05
72 *386:I *272:186 3.76961e-05
73 *412:I *429:I 9.60789e-07
74 *419:I *1355:A2 4.72542e-05
75 *419:I *272:78 0
76 *419:I *272:186 6.56183e-05
77 *1277:A3 *272:86 3.30707e-06
78 *1277:A3 *272:97 1.4382e-06
79 *1277:A3 *272:186 3.2553e-06
80 *1291:A2 *1361:A2 7.04255e-05
81 *1298:A3 *1346:A2 0.000150744
82 *1301:A2 *272:125 9.63432e-05
83 *1301:B1 *377:I 0.000129084
84 *1301:B2 *272:117 8.4183e-06
85 *1317:A2 *392:I 0.000553562
86 *1322:A2 *392:I 1.55668e-05
87 *1343:A2 *272:63 0.000425985
88 *1343:A2 *272:78 0.000244934
89 *1344:A2 *429:I 0.000169954
90 *1346:A1 *1346:A2 8.49208e-05
91 *1349:A1 *1349:A2 2.07522e-05
92 *1349:A1 *272:117 1.0415e-05
93 *1349:A1 *272:125 4.6613e-06
94 *1352:A1 *272:186 0.000288137
95 *1356:A2 *272:59 0.000375337
96 *1357:A2 *272:31 1.14089e-05
97 *1357:A2 *272:46 4.94785e-05
98 *1357:A2 *272:59 0.00190638
99 *1359:B *392:I 2.04557e-05
100 *1359:B *272:59 8.12059e-05
101 *1363:B *1361:A2 8.64434e-05
102 *1365:A1 *392:I 0.000116893
103 *1373:A1 *1361:A2 7.04118e-05
104 *1373:A2 *272:31 0.000311776
105 *1374:B1 *1361:A2 8.49208e-05
106 *1387:S *392:I 6.98034e-05
107 *1412:B2 *380:I 3.91746e-05
108 *1415:A2 *1346:A2 0.000212959
109 *1415:A2 *1349:A2 1.5931e-05
110 *1415:B *1349:A2 0.000117271
111 *1415:B *272:117 7.191e-07
112 *1426:D *391:I 0
113 *1431:D *377:I 3.73774e-06
114 *1444:D *272:63 0.000352143
115 *1456:D *391:I 5.2217e-05
116 *1462:D *380:I 0.000103033
117 *1466:D *1346:A2 0.000121977
118 *1466:CLK *380:I 0.000112491
119 *1466:CLK *272:125 2.11758e-05
120 *1470:I *1361:A2 0
121 *1487:I *391:I 5.78778e-06
122 *1497:I *392:I 3.06611e-05
123 *1502:I *429:I 1.37912e-05
124 *1563:I *392:I 4.24065e-05
125 *1584:I *392:I 0.000310002
126 *4:30 *380:I 3.78027e-05
127 *94:37 *272:59 0.000102385
128 *94:54 *272:59 0.000213972
129 *109:24 *391:I 4.85269e-06
130 *121:24 *377:I 0.0009382
131 *124:16 *380:I 3.6176e-06
132 *131:12 *1349:A2 0.000333525
133 *131:12 *272:117 6.12687e-06
134 *144:25 *392:I 0.000128676
135 *168:10 *272:125 3.12451e-05
136 *170:55 *272:86 0.00021473
137 *172:57 *1355:A2 2.93836e-05
138 *172:57 *272:186 2.82223e-05
139 *205:25 *272:59 0.000627828
140 *208:21 *272:59 0
141 *208:69 *272:59 0
142 *208:85 *272:59 0
143 *208:107 *272:59 0.000256651
144 *208:301 *272:78 0
145 *230:41 *272:59 2.23269e-05
146 *231:10 *380:I 0.000210635
147 *239:47 *380:I 0.000365421
148 *244:39 *272:46 0.000107809
149 *246:14 *272:31 0.000323568
150 *248:71 *272:78 0.00307066
151 *248:71 *272:186 0.000434987
152 *254:12 *392:I 0.000507133
153 *265:38 *391:I 2.05453e-05
154 *265:38 *272:31 0
155 *267:18 *392:I 2.24058e-05
156 *268:31 *392:I 0.000128297
157 *268:31 *272:59 0.000518636
*RES
1 *1503:Z *272:4 4.5 
2 *272:4 *391:I 10.89 
3 *272:4 *272:31 8.19 
4 *272:31 *1361:A2 13.32 
5 *272:31 *272:46 2.7 
6 *272:46 *1358:A2 9 
7 *272:46 *272:59 15.57 
8 *272:59 *272:63 17.91 
9 *272:63 *429:I 14.4 
10 *272:63 *272:78 10.17 
11 *272:78 *272:86 9.9 
12 *272:86 *384:I 4.5 
13 *272:86 *272:97 6.84 
14 *272:97 *272:109 18.81 
15 *272:109 *272:117 5.22 
16 *272:117 *272:125 6.03 
17 *272:125 *380:I 15.3 
18 *272:125 *1346:A2 10.53 
19 *272:117 *1349:A2 15.21 
20 *272:109 *377:I 9.18 
21 *272:97 *1352:A2 9 
22 *272:78 *272:186 7.92 
23 *272:186 *1355:A2 19.44 
24 *272:186 *388:I 9 
25 *272:59 *392:I 31.59 
*END

*D_NET *273 0.0207884
*CONN
*I *1374:A2 I *D gf180mcu_fd_sc_mcu7t5v0__aoi22_1
*I *1370:A2 I *D gf180mcu_fd_sc_mcu7t5v0__nand2_1
*I *1364:A2 I *D gf180mcu_fd_sc_mcu7t5v0__nand2_1
*I *1367:A2 I *D gf180mcu_fd_sc_mcu7t5v0__nand2_1
*I *1504:Z O *D gf180mcu_fd_sc_mcu7t5v0__dlyb_1
*CAP
1 *1374:A2 2.75402e-05
2 *1370:A2 0
3 *1364:A2 0.000635178
4 *1367:A2 0.000672951
5 *1504:Z 0.000394136
6 *273:61 0.00221329
7 *273:12 0.00233279
8 *273:10 0.000503407
9 *1367:A2 *1598:I 0
10 *1367:A2 *289:134 8.38345e-06
11 *273:10 *357:I 0.000159146
12 *273:10 *1256:I 3.01487e-05
13 *273:10 *289:118 4.10247e-05
14 *273:10 *289:122 0.000156325
15 *273:10 *289:134 0.00014891
16 *273:12 *289:134 1.16696e-05
17 *273:61 *349:I 1.23715e-05
18 *273:61 *1360:A1 8.50272e-05
19 *273:61 *1366:A1 8.4733e-05
20 *273:61 *280:48 0.000332921
21 *273:61 *281:29 7.64737e-05
22 *273:61 *289:134 3.46591e-05
23 dac_n[3] *1367:A2 2.46645e-06
24 dac_p[1] *1364:A2 0.000235885
25 dac_p[1] *273:61 1.37934e-05
26 dac_p[3] *273:61 0
27 dac_p[4] *273:61 0.000484439
28 dac_p[6] *1364:A2 0.000901237
29 dac_p[6] *273:61 7.02302e-05
30 dac_p[7] *1364:A2 0.000763799
31 *447:I *273:61 0.000415035
32 *1265:I *273:61 1.86249e-05
33 *1287:A2 *1367:A2 0.000196987
34 *1287:A2 *273:10 0.000433135
35 *1287:A2 *273:12 0.000245976
36 *1360:B *273:61 7.49135e-05
37 *1364:A1 *1364:A2 1.19491e-05
38 *1366:B *1364:A2 7.77227e-05
39 *1367:A1 *1367:A2 0.000294431
40 *1369:B *1367:A2 4.34199e-06
41 *1370:A1 *273:61 1.61889e-05
42 *1372:B *1364:A2 0.000177559
43 *1372:B *273:61 3.54822e-05
44 *1374:B1 *273:10 0.000809582
45 *1449:CLK *273:61 1.64595e-05
46 *1451:D *273:61 0.000288948
47 *1451:CLK *273:61 1.64354e-05
48 *1452:CLK *273:10 4.06083e-05
49 *1564:I *1367:A2 0.00244452
50 *1564:I *273:61 0.000869515
51 *1566:I *1367:A2 0.00254601
52 *1567:I *1367:A2 8.12023e-06
53 *1579:I *273:61 2.83179e-05
54 *86:18 *273:61 7.03878e-07
55 *104:12 *273:10 0.000455451
56 *120:12 *1367:A2 8.67249e-05
57 *120:12 *273:61 0.000364272
58 *120:69 *1367:A2 6.02724e-05
59 *120:69 *273:10 0
60 *217:17 *273:61 0.000152165
61 *246:14 *273:61 0.000123258
62 *247:24 *273:61 3.1667e-05
63 *248:10 *1367:A2 2.44668e-07
64 *248:48 *1367:A2 9.87947e-06
*RES
1 *1504:Z *273:10 13.86 
2 *273:10 *273:12 0.72 
3 *273:12 *1367:A2 28.53 
4 *273:12 *273:61 36.99 
5 *273:61 *1364:A2 11.97 
6 *273:61 *1370:A2 4.5 
7 *273:10 *1374:A2 9.27 
*END

*D_NET *274 0.0463964
*CONN
*I *373:I I *D gf180mcu_fd_sc_mcu7t5v0__antenna
*I *1334:A2 I *D gf180mcu_fd_sc_mcu7t5v0__nand2_1
*I *1327:A2 I *D gf180mcu_fd_sc_mcu7t5v0__nand2_1
*I *371:I I *D gf180mcu_fd_sc_mcu7t5v0__antenna
*I *1286:A1 I *D gf180mcu_fd_sc_mcu7t5v0__nand2_1
*I *358:I I *D gf180mcu_fd_sc_mcu7t5v0__antenna
*I *375:I I *D gf180mcu_fd_sc_mcu7t5v0__antenna
*I *1339:A2 I *D gf180mcu_fd_sc_mcu7t5v0__nand2_1
*I *1331:A2 I *D gf180mcu_fd_sc_mcu7t5v0__nand2_1
*I *372:I I *D gf180mcu_fd_sc_mcu7t5v0__antenna
*I *431:I I *D gf180mcu_fd_sc_mcu7t5v0__antenna
*I *1405:A2 I *D gf180mcu_fd_sc_mcu7t5v0__oai21_1
*I *400:I I *D gf180mcu_fd_sc_mcu7t5v0__antenna
*I *1505:Z O *D gf180mcu_fd_sc_mcu7t5v0__dlyb_1
*CAP
1 *373:I 0.000179837
2 *1334:A2 0
3 *1327:A2 0.000945725
4 *371:I 0.000118483
5 *1286:A1 0
6 *358:I 0.000518073
7 *375:I 0
8 *1339:A2 0
9 *1331:A2 0
10 *372:I 0.000265105
11 *431:I 0.000233728
12 *1405:A2 0
13 *400:I 0.000315881
14 *1505:Z 0
15 *274:183 0.000363321
16 *274:159 0.0035382
17 *274:155 0.00423534
18 *274:114 0.000700552
19 *274:108 0.000392869
20 *274:97 0.000637615
21 *274:81 0.00214253
22 *274:66 0.000224442
23 *274:47 0.00106435
24 *274:34 0.00106294
25 *274:14 0.000718467
26 *274:4 0.000519556
27 *358:I *406:I 1.90777e-06
28 *358:I *1342:B 7.90339e-05
29 *358:I *276:192 3.36928e-05
30 *371:I *276:114 0.000294421
31 *372:I *276:192 0.000179989
32 *431:I *1290:A2 0
33 *431:I *280:72 6.00818e-05
34 *1327:A2 *1303:A1 0.000336108
35 *1327:A2 *1309:A2 4.6613e-06
36 *1327:A2 *285:51 0.000111208
37 *1327:A2 *289:25 8.21312e-05
38 *1327:A2 *289:38 9.83074e-05
39 *274:14 *1284:A1 7.85533e-05
40 *274:14 *1284:A2 0.000331573
41 *274:14 *1290:A2 4.434e-05
42 *274:14 *1294:A1 7.60991e-06
43 *274:14 *1376:A2 3.43442e-05
44 *274:14 *1405:A1 0.000328501
45 *274:14 *287:20 7.75929e-06
46 *274:14 *293:22 9.3226e-06
47 *274:34 *1376:A2 0.000332395
48 *274:34 *287:20 4.94791e-06
49 *274:47 *1305:B 0.00152198
50 *274:47 *276:14 6.91113e-06
51 *274:47 *276:192 3.41666e-06
52 *274:47 *280:72 0.000117898
53 *274:47 *287:20 0.000379424
54 *274:66 *312:14 3.73774e-06
55 *274:81 *1331:A1 0.000132088
56 *274:81 *312:14 8.68281e-06
57 *274:97 *1339:A1 0.000286084
58 *274:97 *1371:C 0.000925155
59 *274:108 *1339:A1 0.000106753
60 *274:108 *1342:B 0.000164138
61 *274:155 *1331:A1 0.000229402
62 *274:155 *1368:C 0.00169884
63 *274:155 *1530:I 0
64 *274:155 *1531:I 1.29339e-05
65 *274:155 *337:43 0.000363608
66 *274:159 *355:I 1.87032e-05
67 *274:159 *406:I 0.000283695
68 *274:159 *1314:A1 3.33052e-05
69 *274:159 *1323:A1 2.74594e-05
70 *274:159 *1388:I1 9.04462e-05
71 *274:159 *1513:I 2.98728e-05
72 *274:159 *276:114 0.000191628
73 *274:159 *283:8 8.92554e-05
74 *274:159 *284:12 4.53036e-05
75 *274:159 *285:51 0.000976298
76 *274:159 *334:14 0.000921572
77 *274:159 *335:12 2.21432e-05
78 *274:183 *1530:I 4.38503e-05
79 dout[5] *373:I 0.000363938
80 *350:I *358:I 4.217e-05
81 *350:I *274:114 6.40689e-05
82 *412:I *274:155 6.51749e-05
83 *424:I *274:159 1.0942e-05
84 *450:I *274:159 9.95935e-05
85 *1249:I *400:I 0.000876939
86 *1253:I *274:108 1.42059e-05
87 *1286:A2 *274:97 4.92231e-05
88 *1286:A2 *274:108 6.49017e-05
89 *1315:A2 *1327:A2 7.47548e-06
90 *1328:B *1327:A2 0.000209048
91 *1332:B *274:81 0.000456544
92 *1332:B *274:155 1.44866e-05
93 *1335:A2 *274:155 9.72383e-05
94 *1335:B *274:155 0.000160821
95 *1335:B *274:183 0
96 *1344:A1 *274:155 0.000209629
97 *1363:B *400:I 0.000556848
98 *1369:A2 *274:97 3.10415e-05
99 *1371:A1 *372:I 0.000213674
100 *1371:B *274:97 9.34233e-05
101 *1372:A2 *274:47 0.000205239
102 *1372:A2 *274:81 0.000500902
103 *1374:B2 *431:I 0.000476777
104 *1374:B2 *274:47 0.000938268
105 *1374:B2 *274:97 6.71645e-05
106 *1376:A1 *431:I 0.000222797
107 *1376:B *431:I 0.000158639
108 *1386:S *274:159 0
109 *1387:S *274:159 5.69335e-05
110 *1391:I0 *373:I 0
111 *1391:I0 *274:183 0
112 *1397:A2 *274:14 0.000175001
113 *1405:B *274:14 5.78854e-06
114 *1406:A2 *400:I 0.000526155
115 *1419:D *274:159 0.000112735
116 *1420:D *274:159 0.000537798
117 *1422:D *274:155 7.12767e-05
118 *1430:D *400:I 0.000339824
119 *1437:D *1327:A2 0
120 *1444:CLK *358:I 0.000410502
121 *1463:D *274:108 1.1746e-06
122 *1469:I *274:47 0.000562877
123 *1473:I *274:155 0.000337381
124 *1475:I *358:I 0.000112785
125 *1475:I *274:114 0
126 *1502:I *274:155 2.87139e-05
127 *1510:I *400:I 0
128 *1511:I *400:I 0.000201539
129 *1521:I *274:47 2.39789e-05
130 *1562:I *372:I 7.66944e-05
131 *1586:I *274:159 0.000147967
132 *1591:I *1327:A2 0.00349924
133 *1592:I *1327:A2 0
134 *97:14 *400:I 0.00012921
135 *101:16 *274:97 4.83522e-05
136 *105:14 *431:I 6.66435e-05
137 *120:69 *274:14 0.000209629
138 *159:41 *372:I 0.00017575
139 *159:41 *274:47 0.000270601
140 *159:41 *274:66 8.68281e-06
141 *159:41 *274:81 0.00014581
142 *170:26 *274:97 0.000919617
143 *170:26 *274:108 0
144 *208:249 *274:155 0.000210376
145 *208:251 *274:155 0.000168434
146 *232:56 *274:159 7.89632e-05
147 *241:111 *274:155 3.60262e-05
148 *257:8 *373:I 0
149 *266:20 *274:97 0.000619783
150 *266:20 *274:155 8.68398e-06
151 *269:65 *1327:A2 0.000219778
152 *270:37 *274:155 0.000208056
*RES
1 *1505:Z *274:4 4.5 
2 *274:4 *274:14 12.69 
3 *274:14 *400:I 18.63 
4 *274:14 *1405:A2 4.5 
5 *274:4 *274:34 5.49 
6 *274:34 *431:I 11.52 
7 *274:34 *274:47 9.27 
8 *274:47 *372:I 11.43 
9 *274:47 *274:66 5.04 
10 *274:66 *1331:A2 4.5 
11 *274:66 *274:81 7.02 
12 *274:81 *274:97 20.25 
13 *274:97 *1339:A2 4.5 
14 *274:97 *274:108 1.71 
15 *274:108 *274:114 9.99 
16 *274:114 *375:I 4.5 
17 *274:114 *358:I 17.19 
18 *274:108 *1286:A1 4.5 
19 *274:81 *274:155 14.22 
20 *274:155 *274:159 25.11 
21 *274:159 *371:I 5.58 
22 *274:159 *1327:A2 25.02 
23 *274:155 *274:183 1.35 
24 *274:183 *1334:A2 9 
25 *274:183 *373:I 10.8 
*END

*D_NET *275 0.00137784
*CONN
*I *1596:I I *D gf180mcu_fd_sc_mcu7t5v0__buf_2
*I *1383:A2 I *D gf180mcu_fd_sc_mcu7t5v0__nand3_1
*I *1458:Q O *D gf180mcu_fd_sc_mcu7t5v0__dffrnq_1
*CAP
1 *1596:I 0
2 *1383:A2 0.000433099
3 *1458:Q 0.00013994
4 *275:10 0.000573039
5 *1383:A2 *1552:I 8.68281e-06
6 *1383:A2 *1597:I 0
7 *1383:A2 *305:8 3.11128e-05
8 *1252:I *275:10 9.59812e-05
9 *1382:A1 *1383:A2 0
10 *4:30 *275:10 9.59812e-05
11 *111:28 *1383:A2 0
*RES
1 *1458:Q *275:10 15.03 
2 *275:10 *1383:A2 7.02 
3 *275:10 *1596:I 4.5 
*END

*D_NET *276 0.0623217
*CONN
*I *364:I I *D gf180mcu_fd_sc_mcu7t5v0__antenna
*I *369:I I *D gf180mcu_fd_sc_mcu7t5v0__antenna
*I *1323:A2 I *D gf180mcu_fd_sc_mcu7t5v0__nand2_1
*I *367:I I *D gf180mcu_fd_sc_mcu7t5v0__antenna
*I *1319:A2 I *D gf180mcu_fd_sc_mcu7t5v0__nand2_1
*I *432:I I *D gf180mcu_fd_sc_mcu7t5v0__antenna
*I *430:I I *D gf180mcu_fd_sc_mcu7t5v0__antenna
*I *1505:I I *D gf180mcu_fd_sc_mcu7t5v0__dlyb_1
*I *365:I I *D gf180mcu_fd_sc_mcu7t5v0__antenna
*I *1314:A2 I *D gf180mcu_fd_sc_mcu7t5v0__nand2_1
*I *366:I I *D gf180mcu_fd_sc_mcu7t5v0__antenna
*I *1309:A2 I *D gf180mcu_fd_sc_mcu7t5v0__nand2_1
*I *1304:A2 I *D gf180mcu_fd_sc_mcu7t5v0__nand2_1
*I *1506:Z O *D gf180mcu_fd_sc_mcu7t5v0__buf_2
*CAP
1 *364:I 0.000335074
2 *369:I 0.000288029
3 *1323:A2 0
4 *367:I 4.63104e-05
5 *1319:A2 0
6 *432:I 0
7 *430:I 0.00081014
8 *1505:I 8.06229e-05
9 *365:I 0
10 *1314:A2 0
11 *366:I 0.00244856
12 *1309:A2 0.000483199
13 *1304:A2 0.000661888
14 *1506:Z 5.44484e-05
15 *276:220 0.000325374
16 *276:216 0.000628933
17 *276:203 0.000796571
18 *276:192 0.00281482
19 *276:147 0.00133505
20 *276:114 0.00339588
21 *276:91 0.0022353
22 *276:77 0.000911282
23 *276:46 0.00235287
24 *276:20 0.00245496
25 *276:14 0.000887602
26 *276:8 0.00283694
27 *364:I *401:I 4.843e-05
28 *364:I *1393:S 0.00015021
29 *364:I *296:116 0.000155816
30 *366:I *404:I 4.46848e-05
31 *366:I *1420:RN 0
32 *366:I *1556:I 0.00010513
33 *366:I *285:51 0.000302284
34 *366:I *289:38 0
35 *366:I *289:53 0
36 *369:I *409:I 0
37 *369:I *1323:A1 0
38 *430:I *280:72 2.13432e-05
39 *1304:A2 *1304:A1 0.000817567
40 *1304:A2 *1598:I 0.000164305
41 *1309:A2 *1303:A1 1.51308e-05
42 *1505:I *1294:A1 9.04462e-05
43 *1505:I *287:33 8.67249e-05
44 *276:8 *312:14 2.1573e-06
45 *276:14 *1305:B 2.18129e-05
46 *276:14 *343:12 0.000421744
47 *276:20 *1405:A1 0.000415336
48 *276:20 *293:14 2.79847e-05
49 *276:46 *1258:I 3.81908e-06
50 *276:46 *1271:A1 5.57637e-05
51 *276:46 *290:151 3.53897e-05
52 *276:46 *308:20 1.25324e-05
53 *276:46 *340:37 3.35847e-05
54 *276:77 *1304:A1 9.69415e-05
55 *276:77 *285:57 0.000274798
56 *276:91 *410:I 0.000153256
57 *276:91 *285:57 0.000207739
58 *276:114 *289:38 2.32816e-05
59 *276:147 *1284:A1 8.94491e-05
60 *276:147 *1376:A2 3.65534e-05
61 *276:147 *1405:A1 9.56196e-05
62 *276:192 *406:I 0.000112593
63 *276:192 *1333:B 0.000417353
64 *276:192 *1463:RN 0
65 *276:192 *338:28 0.000349965
66 *276:203 *296:116 7.28717e-05
67 *276:216 *1393:S 2.86299e-05
68 *276:216 *296:116 8.376e-05
69 *276:220 *409:I 0
70 *276:220 *1323:A1 1.0415e-05
71 dout[1] *366:I 0
72 dout_valid *276:114 7.55557e-06
73 eoc *276:91 1.72921e-05
74 *358:I *276:192 3.36928e-05
75 *371:I *276:114 0.000294421
76 *372:I *276:192 0.000179989
77 *418:I *276:203 0.000185029
78 *441:I *276:192 8.43242e-05
79 *1260:I *1304:A2 0.000190762
80 *1262:I *1304:A2 1.81429e-05
81 *1310:A2 *276:91 0.000236857
82 *1315:B *276:91 0.000618805
83 *1315:B *276:114 0.00440969
84 *1327:A2 *1309:A2 4.6613e-06
85 *1328:B *1309:A2 1.15771e-05
86 *1332:B *276:192 7.54708e-05
87 *1333:A1 *276:192 4.04088e-05
88 *1333:A2 *276:192 0.000356345
89 *1335:A2 *276:192 6.95564e-06
90 *1340:A1 *276:192 6.36368e-05
91 *1343:A2 *276:14 7.13778e-06
92 *1343:A2 *276:192 3.45023e-05
93 *1344:B *276:192 0.000106509
94 *1348:A2 *1304:A2 0.00234367
95 *1348:A2 *276:77 4.87375e-05
96 *1351:A2 *276:91 0.00152037
97 *1355:A1 *369:I 2.89427e-06
98 *1357:B *276:46 0.000318321
99 *1368:A1 *276:192 0.000112064
100 *1372:A2 *430:I 0.000153283
101 *1378:A2 *276:91 0.000247379
102 *1395:A2 *276:91 0.000248637
103 *1395:A2 *276:114 0.000684995
104 *1401:A2 *276:46 0.00151859
105 *1403:A1 *276:20 0.000114217
106 *1403:B *276:20 0.000730939
107 *1426:CLK *1304:A2 1.20217e-05
108 *1427:D *276:46 0.000838537
109 *1427:D *276:91 2.88469e-05
110 *1428:D *276:46 0.000888967
111 *1429:D *276:46 0.000343021
112 *1430:CLK *276:20 1.78004e-05
113 *1442:CLK *276:192 3.77882e-05
114 *1443:D *276:192 0.000214689
115 *1443:CLK *276:192 0.00127537
116 *1444:CLK *276:192 3.77011e-05
117 *1445:D *276:46 1.50605e-05
118 *1445:D *276:77 8.85427e-05
119 *1445:D *276:91 1.0415e-05
120 *1463:D *276:192 0
121 *1468:I *1309:A2 3.12451e-05
122 *1469:I *276:20 0.000158362
123 *1476:I *276:192 0
124 *1476:I *276:203 2.23791e-05
125 *1490:I *276:192 2.53817e-05
126 *1492:I *367:I 1.98195e-05
127 *1511:I *276:46 0.000169515
128 *1521:I *276:14 0.000643424
129 *1582:I *366:I 0.000372606
130 *1591:I *1309:A2 8.56918e-05
131 *1591:I *276:114 3.73774e-06
132 *1592:I *1309:A2 1.27836e-05
133 *1592:I *276:91 0.000109071
134 *7:26 *276:114 0.000234481
135 *109:24 *276:46 0.000210822
136 *110:14 *1505:I 9.5155e-05
137 *110:33 *1505:I 7.06124e-06
138 *110:33 *276:147 4.49444e-05
139 *120:69 *1505:I 5.43496e-06
140 *120:69 *276:147 1.02656e-06
141 *123:16 *276:20 4.10339e-05
142 *123:16 *276:46 0.00037275
143 *136:32 *276:91 0.000229829
144 *146:34 *276:203 5.60389e-05
145 *159:41 *276:8 6.0995e-06
146 *208:11 *276:14 0.000423929
147 *208:11 *276:20 3.6049e-05
148 *208:15 *276:20 5.60857e-05
149 *208:15 *276:147 0.000128655
150 *208:19 *276:46 0.000289473
151 *219:18 *276:46 5.32076e-05
152 *229:83 *276:192 4.10775e-05
153 *229:94 *276:192 0.000138824
154 *231:22 *276:20 0.000219663
155 *241:111 *364:I 0.000223398
156 *243:79 *367:I 1.06861e-05
157 *243:79 *369:I 5.55249e-05
158 *243:79 *276:203 0.000203044
159 *243:79 *276:216 7.14486e-05
160 *243:79 *276:220 1.56862e-05
161 *254:12 *366:I 0.00127651
162 *261:8 *276:91 7.97785e-05
163 *269:10 *276:46 0.00240086
164 *269:10 *276:77 3.66781e-06
165 *269:44 *276:91 0.00274826
166 *269:65 *276:91 0
167 *270:16 *276:192 4.68456e-05
168 *270:37 *276:192 0.000532416
169 *274:47 *276:14 6.91113e-06
170 *274:47 *276:192 3.41666e-06
171 *274:159 *276:114 0.000191628
*RES
1 *1506:Z *276:8 9.27 
2 *276:8 *276:14 8.82 
3 *276:14 *276:20 9.18 
4 *276:20 *276:46 45.45 
5 *276:46 *1304:A2 26.91 
6 *276:46 *276:77 5.94 
7 *276:77 *276:91 26.82 
8 *276:91 *1309:A2 20.07 
9 *276:91 *276:114 17.1 
10 *276:114 *366:I 31.41 
11 *276:114 *1314:A2 4.5 
12 *276:77 *365:I 4.5 
13 *276:20 *276:147 3.42 
14 *276:147 *1505:I 9.72 
15 *276:147 *430:I 21.06 
16 *276:14 *432:I 4.5 
17 *276:8 *276:192 23.76 
18 *276:192 *1319:A2 4.5 
19 *276:192 *276:203 8.28 
20 *276:203 *367:I 9.27 
21 *276:203 *276:216 1.62 
22 *276:216 *276:220 4.77 
23 *276:220 *1323:A2 4.5 
24 *276:220 *369:I 6.12 
25 *276:216 *364:I 11.7 
*END

*D_NET *277 0.0143596
*CONN
*I *1303:A1 I *D gf180mcu_fd_sc_mcu7t5v0__aoi21_1
*I *1347:A1 I *D gf180mcu_fd_sc_mcu7t5v0__aoi211_2
*I *1312:A3 I *D gf180mcu_fd_sc_mcu7t5v0__and3_1
*I *1318:A1 I *D gf180mcu_fd_sc_mcu7t5v0__aoi21_1
*I *1307:A3 I *D gf180mcu_fd_sc_mcu7t5v0__and3_1
*I *1353:B2 I *D gf180mcu_fd_sc_mcu7t5v0__aoi221_2
*I *1507:Z O *D gf180mcu_fd_sc_mcu7t5v0__dlyb_1
*CAP
1 *1303:A1 0.000414572
2 *1347:A1 0.00015428
3 *1312:A3 4.47044e-06
4 *1318:A1 0.000366342
5 *1307:A3 0
6 *1353:B2 0.000912168
7 *1507:Z 0.00013587
8 *277:63 0.00148102
9 *277:27 0.00041732
10 *277:18 0.000139462
11 *277:12 0.000228824
12 *1303:A1 *1303:B 7.83587e-05
13 *1312:A3 *1312:A2 9.85004e-05
14 *1318:A1 *289:14 0
15 *277:18 *1312:A2 0.000405732
16 *277:63 *1312:A2 0.000491717
17 *353:I *277:63 2.33832e-05
18 *1303:A2 *1303:A1 1.60909e-05
19 *1306:A1 *1303:A1 9.04462e-05
20 *1307:A2 *1318:A1 7.28823e-05
21 *1307:A2 *277:18 0.000409804
22 *1307:A2 *277:27 0.000588169
23 *1309:A2 *1303:A1 1.51308e-05
24 *1315:A2 *1303:A1 2.9172e-05
25 *1315:B *1303:A1 1.50774e-05
26 *1320:A2 *1318:A1 3.0177e-06
27 *1324:A2 *1318:A1 0.000752664
28 *1327:A2 *1303:A1 0.000336108
29 *1328:B *277:63 3.42827e-05
30 *1347:B *1347:A1 1.55102e-05
31 *1347:B *277:63 0
32 *1353:B1 *1318:A1 0.000109323
33 *1353:B1 *277:18 0.000402095
34 *1353:B1 *277:27 0.000618826
35 *1357:A2 *277:12 0.000143583
36 *1360:A2 *277:12 0.000570687
37 *1437:D *277:63 0.0010637
38 *1437:CLK *277:63 0.000408152
39 *1591:I *1303:A1 2.88603e-05
40 *1592:I *1303:A1 0.000161845
41 *1592:I *1347:A1 0.00030858
42 *1592:I *277:63 8.53098e-05
43 *7:26 *1303:A1 0.000107221
44 *132:12 *1318:A1 6.8611e-05
45 *143:14 *1318:A1 0.000273542
46 *219:10 *277:63 0
47 *230:41 *1312:A3 6.83517e-05
48 *230:41 *277:18 0.000413612
49 *261:8 *1303:A1 1.56087e-05
50 *269:44 *1347:A1 9.7763e-05
51 *269:65 *1303:A1 0.00168359
52 *272:59 *277:12 0
*RES
1 *1507:Z *277:12 15.3 
2 *277:12 *277:18 6.84 
3 *277:18 *1353:B2 9 
4 *277:18 *277:27 1.71 
5 *277:27 *1307:A3 9 
6 *277:27 *1318:A1 12.69 
7 *277:12 *1312:A3 4.77 
8 *1353:B2 *277:63 16.65 
9 *277:63 *1347:A1 10.8 
10 *277:63 *1303:A1 14.94 
*END

*D_NET *278 0.00100189
*CONN
*I *1356:A1 I *D gf180mcu_fd_sc_mcu7t5v0__aoi221_2
*I *1546:Z O *D gf180mcu_fd_sc_mcu7t5v0__dlyb_1
*CAP
1 *1356:A1 9.96783e-05
2 *1546:Z 9.96783e-05
3 *94:54 *1356:A1 0.000123843
4 *230:41 *1356:A1 9.04462e-05
5 *243:67 *1356:A1 9.04462e-05
6 *272:59 *1356:A1 0.000497796
*RES
1 *1546:Z *1356:A1 19.62 
*END

*D_NET *279 0.006873
*CONN
*I *1542:I I *D gf180mcu_fd_sc_mcu7t5v0__buf_2
*I *1290:A1 I *D gf180mcu_fd_sc_mcu7t5v0__nor2_1
*I *1508:Z O *D gf180mcu_fd_sc_mcu7t5v0__buf_2
*CAP
1 *1542:I 0.000613757
2 *1290:A1 0.000615923
3 *1508:Z 0.000373957
4 *279:10 0.00160364
5 *1290:A1 *298:14 0.00159275
6 *1542:I *1465:RN 7.37195e-06
7 *279:10 *1548:I 3.97987e-05
8 *1280:A3 *1542:I 0.000352613
9 *1369:A2 *1290:A1 0.000147657
10 *1376:A1 *1542:I 0
11 *1376:A1 *279:10 0
12 *1377:A1 *1542:I 1.96159e-05
13 *1377:A2 *1542:I 3.87145e-05
14 *1377:A3 *279:10 0.000404105
15 *1382:A1 *1542:I 4.434e-05
16 *1383:A3 *1542:I 2.1573e-06
17 *1383:A3 *279:10 3.94423e-05
18 *1407:A1 *279:10 6.73586e-05
19 *1455:D *1290:A1 5.57923e-05
20 *1571:I *1290:A1 9.67415e-05
21 *122:20 *1290:A1 0.000103033
22 *126:14 *1542:I 0.000498948
23 *248:65 *1290:A1 0.000155283
*RES
1 *1508:Z *279:10 7.47 
2 *279:10 *1290:A1 19.44 
3 *279:10 *1542:I 9.54 
*END

*D_NET *280 0.0295491
*CONN
*I *1273:A1 I *D gf180mcu_fd_sc_mcu7t5v0__nor2_1
*I *1292:B2 I *D gf180mcu_fd_sc_mcu7t5v0__oai22_4
*I *1369:A1 I *D gf180mcu_fd_sc_mcu7t5v0__oai21_1
*I *1372:A1 I *D gf180mcu_fd_sc_mcu7t5v0__oai21_1
*I *1366:A1 I *D gf180mcu_fd_sc_mcu7t5v0__oai21_1
*I *1373:B I *D gf180mcu_fd_sc_mcu7t5v0__aoi21_1
*I *1509:Z O *D gf180mcu_fd_sc_mcu7t5v0__buf_2
*CAP
1 *1273:A1 0.0011683
2 *1292:B2 7.21875e-05
3 *1369:A1 0.000154561
4 *1372:A1 0
5 *1366:A1 0.000194216
6 *1373:B 0.000981775
7 *1509:Z 0.000274044
8 *280:72 0.00243473
9 *280:52 0.000182043
10 *280:48 0.00206176
11 *280:31 0.00240042
12 *280:10 0.00262198
13 *1273:A1 *1255:I 3.57452e-05
14 *1273:A1 *1296:A1 0.000114736
15 *1273:A1 *1375:A1 8.65983e-05
16 *1273:A1 *1408:A2 0.000141015
17 *1273:A1 *1516:I 0.000567142
18 *1273:A1 *1601:I 2.76589e-05
19 *1369:A1 *1379:A1 2.32247e-05
20 *1373:B *1549:I 2.36813e-05
21 *1373:B *298:14 0
22 *280:10 *1270:A2 0.000794564
23 *280:10 *290:129 0.00228968
24 *280:10 *291:79 0.00193553
25 *280:10 *292:47 3.34303e-05
26 *280:31 *1363:A1 2.96876e-05
27 *280:31 *298:14 0
28 *280:48 *1287:A1 1.12606e-05
29 *280:48 *296:34 0.000818187
30 *280:48 *304:12 7.39934e-06
31 *280:72 *1287:A1 2.01743e-05
32 *280:72 *1345:A1 2.69292e-05
33 *280:72 *304:12 0.000254843
34 *430:I *280:72 2.13432e-05
35 *431:I *280:72 6.00818e-05
36 *1265:I *1366:A1 5.33941e-05
37 *1265:I *280:31 0
38 *1272:A4 *280:10 0.000125519
39 *1273:A2 *1273:A1 0.000403788
40 *1278:A2 *1273:A1 8.67249e-05
41 *1292:B1 *1273:A1 4.93145e-06
42 *1292:B1 *1292:B2 5.0613e-05
43 *1296:A2 *1273:A1 3.01487e-05
44 *1357:A2 *1373:B 1.79261e-05
45 *1363:B *280:31 4.49639e-05
46 *1366:A2 *1366:A1 2.53471e-05
47 *1366:A2 *280:31 9.18941e-05
48 *1372:A2 *280:72 0.00035464
49 *1374:A1 *280:48 8.62654e-05
50 *1375:A2 *1273:A1 0.000153114
51 *1376:B *280:72 0.000285653
52 *1400:B2 *280:10 1.47172e-05
53 *1407:B1 *1273:A1 0.000668891
54 *1452:D *1369:A1 1.36594e-05
55 *1453:D *1369:A1 3.01487e-05
56 *1453:D *280:52 0.000215362
57 *1453:D *280:72 0.000213019
58 *1454:CLK *280:31 6.48048e-05
59 *1469:I *280:72 0.000120439
60 *1470:I *1373:B 1.97376e-05
61 *1504:I *280:72 0.00113139
62 *1564:I *1366:A1 4.45702e-05
63 *86:18 *280:48 0.000734092
64 *108:14 *280:31 5.44025e-05
65 *110:37 *280:72 0.000348951
66 *120:12 *280:48 0
67 *122:20 *1369:A1 0.000582494
68 *122:20 *280:52 0.000215362
69 *123:16 *1292:B2 4.44209e-05
70 *206:22 *280:10 0.000412514
71 *206:22 *280:31 3.61709e-05
72 *218:8 *280:31 0.000112545
73 *231:16 *1273:A1 0.001346
74 *231:22 *1273:A1 0.000313835
75 *231:22 *1292:B2 0.000224343
76 *233:20 *280:31 0.000117482
77 *244:39 *1373:B 0.000109657
78 *272:46 *1373:B 0.000140719
79 *273:61 *1366:A1 8.4733e-05
80 *273:61 *280:48 0.000332921
81 *274:47 *280:72 0.000117898
*RES
1 *1509:Z *280:10 21.51 
2 *280:10 *1373:B 17.73 
3 *280:10 *280:31 11.88 
4 *280:31 *1366:A1 10.35 
5 *280:31 *280:48 16.38 
6 *280:48 *280:52 5.13 
7 *280:52 *1372:A1 4.5 
8 *280:52 *1369:A1 6.21 
9 *280:48 *280:72 15.39 
10 *280:72 *1292:B2 5.4 
11 *280:72 *1273:A1 34.02 
*END

*D_NET *281 0.0127392
*CONN
*I *1363:A1 I *D gf180mcu_fd_sc_mcu7t5v0__oai21_1
*I *1357:A1 I *D gf180mcu_fd_sc_mcu7t5v0__oai21_1
*I *1351:A1 I *D gf180mcu_fd_sc_mcu7t5v0__oai21_1
*I *1354:A1 I *D gf180mcu_fd_sc_mcu7t5v0__oai21_1
*I *1348:A1 I *D gf180mcu_fd_sc_mcu7t5v0__oai21_1
*I *1360:A1 I *D gf180mcu_fd_sc_mcu7t5v0__oai21_1
*I *1510:Z O *D gf180mcu_fd_sc_mcu7t5v0__dlyb_1
*CAP
1 *1363:A1 0.000158715
2 *1357:A1 2.15951e-05
3 *1351:A1 0
4 *1354:A1 0
5 *1348:A1 0.00015129
6 *1360:A1 0.000129388
7 *1510:Z 0.000345886
8 *281:43 0.000277238
9 *281:35 0.000355512
10 *281:29 0.000726655
11 *281:10 0.000792054
12 *1348:A1 *403:I 0
13 *1348:A1 *1598:I 1.03724e-05
14 *1348:A1 *296:46 0.000106067
15 *1363:A1 *296:46 0.000264706
16 *281:10 *1379:A1 0.00172102
17 *281:10 *1598:I 0.00173007
18 *281:29 *1379:A1 0.000140796
19 *281:29 *296:46 0
20 dac_p[1] *1360:A1 0.000103084
21 dac_p[1] *281:10 6.73346e-05
22 dac_p[4] *281:29 0.000333429
23 dac_p[4] *281:35 0.000154208
24 *1262:I *281:43 0.00071647
25 *1351:B *281:35 0.000116594
26 *1351:B *281:43 1.07374e-05
27 *1357:A2 *281:29 4.25479e-05
28 *1360:A2 *281:29 0.000481664
29 *1364:A1 *281:43 5.79792e-06
30 *1366:A2 *1363:A1 0.000205674
31 *1372:B *281:29 0.000676462
32 *1446:D *281:35 0.000106536
33 *1446:D *281:43 0.000182216
34 *1448:D *1357:A1 1.478e-05
35 *1448:D *281:29 0.000409885
36 *1448:CLK *281:35 1.23715e-05
37 *1448:CLK *281:43 0
38 *1449:CLK *1360:A1 5.14272e-05
39 *1449:CLK *281:29 0
40 *1450:D *1363:A1 0.000738308
41 *1454:D *1363:A1 0.000369989
42 *1456:D *281:29 0.00031577
43 *1575:I *281:29 1.478e-05
44 *1575:I *281:35 0.000173603
45 *229:22 *281:35 6.76694e-05
46 *229:22 *281:43 2.31089e-05
47 *246:14 *1360:A1 0.000127759
48 *246:14 *281:10 7.90122e-05
49 *265:38 *1363:A1 0
50 *265:38 *281:35 1.5438e-05
51 *273:61 *1360:A1 8.50272e-05
52 *273:61 *281:29 7.64737e-05
53 *280:31 *1363:A1 2.96876e-05
*RES
1 *1510:Z *281:10 14.4 
2 *281:10 *1360:A1 10.44 
3 *281:10 *281:29 10.71 
4 *281:29 *281:35 2.97 
5 *281:35 *281:43 11.16 
6 *281:43 *1348:A1 5.58 
7 *281:43 *1354:A1 4.5 
8 *281:35 *1351:A1 4.5 
9 *281:29 *1357:A1 4.77 
10 *1510:Z *1363:A1 20.7 
*END

*D_NET *282 0.00724262
*CONN
*I *1401:C I *D gf180mcu_fd_sc_mcu7t5v0__aoi211_1
*I *1509:I I *D gf180mcu_fd_sc_mcu7t5v0__buf_2
*I *1407:B2 I *D gf180mcu_fd_sc_mcu7t5v0__oai221_4
*I *1511:Z O *D gf180mcu_fd_sc_mcu7t5v0__dlyb_1
*CAP
1 *1401:C 0
2 *1509:I 0.000583392
3 *1407:B2 0.00130605
4 *1511:Z 0
5 *282:29 0.000828573
6 *282:4 0.00155123
7 *1407:B2 *1376:A2 2.89427e-06
8 *1407:B2 *287:10 1.45601e-05
9 *1407:B2 *293:54 0.000140894
10 *1407:B2 *343:27 0.000533534
11 *1509:I *1429:RN 0.000256433
12 *1509:I *302:10 9.39061e-05
13 *1509:I *302:18 0.000679485
14 *282:29 *293:54 2.03413e-05
15 *1273:A2 *1407:B2 0
16 *1369:A2 *1407:B2 9.84805e-05
17 *1374:B2 *1407:B2 0.00031345
18 *1402:A3 *1407:B2 4.03439e-06
19 *1402:A3 *282:29 8.1517e-05
20 *1403:A1 *1407:B2 2.60524e-05
21 *1407:A1 *1407:B2 0.000153283
22 *1430:D *1509:I 3.01487e-05
23 *1430:CLK *1407:B2 2.59858e-05
24 *1430:CLK *1509:I 7.191e-07
25 *1430:CLK *282:29 5.66493e-05
26 *97:14 *1509:I 0.000284633
27 *108:27 *282:29 4.33758e-05
28 *110:33 *1407:B2 0
29 *123:16 *1407:B2 2.25507e-05
30 *196:10 *1407:B2 9.04462e-05
*RES
1 *1511:Z *282:4 4.5 
2 *282:4 *1407:B2 29.7 
3 *282:4 *282:29 1.8 
4 *282:29 *1509:I 18.18 
5 *282:29 *1401:C 4.5 
*END

*D_NET *283 0.0102871
*CONN
*I *1543:I I *D gf180mcu_fd_sc_mcu7t5v0__buf_2
*I *1390:S I *D gf180mcu_fd_sc_mcu7t5v0__mux2_2
*I *1512:Z O *D gf180mcu_fd_sc_mcu7t5v0__buf_2
*CAP
1 *1543:I 0
2 *1390:S 0.000450083
3 *1512:Z 0.000829546
4 *283:8 0.00127963
5 *1390:S *1557:I 2.92773e-05
6 *283:8 *1334:A1 0.000813301
7 *283:8 *1512:I 0.000153231
8 *283:8 *1530:I 0.000609281
9 *283:8 *323:18 0
10 dout[5] *283:8 3.92046e-05
11 *450:I *1390:S 4.27339e-05
12 *1335:B *283:8 0.000365445
13 *1390:I0 *1390:S 0.00302899
14 *1421:D *1390:S 9.9689e-05
15 *1441:D *1390:S 0.00233425
16 *1586:I *283:8 5.28618e-05
17 *256:10 *1390:S 7.03219e-05
18 *274:159 *283:8 8.92554e-05
*RES
1 *1512:Z *283:8 12.24 
2 *283:8 *1390:S 22.59 
3 *283:8 *1543:I 4.5 
*END

*D_NET *284 0.0141797
*CONN
*I *1391:S I *D gf180mcu_fd_sc_mcu7t5v0__mux2_2
*I *1393:S I *D gf180mcu_fd_sc_mcu7t5v0__mux2_2
*I *1394:S I *D gf180mcu_fd_sc_mcu7t5v0__mux2_2
*I *1392:S I *D gf180mcu_fd_sc_mcu7t5v0__mux2_2
*I *1513:Z O *D gf180mcu_fd_sc_mcu7t5v0__dlyb_1
*CAP
1 *1391:S 2.63899e-05
2 *1393:S 0.00139557
3 *1394:S 0
4 *1392:S 0
5 *1513:Z 0.000623925
6 *284:31 0.00162224
7 *284:24 0.00185211
8 *284:12 0.00227575
9 *1391:S *1391:I1 1.20058e-05
10 *1391:S *1531:I 9.04462e-05
11 *1393:S *401:I 0
12 *1393:S *1323:A1 9.65355e-06
13 *1393:S *1394:I1 1.60093e-05
14 *1393:S *1533:I 0.000375633
15 *1393:S *1560:I 0.000411094
16 *1393:S *324:23 0.000101608
17 *284:12 *355:I 0.000852321
18 *284:12 *1530:I 0.00014244
19 *284:12 *318:10 0.000238439
20 *284:24 *337:43 0.00052629
21 *284:31 *1394:I1 2.89427e-06
22 *351:I *1393:S 5.06031e-06
23 *364:I *1393:S 0.00015021
24 *441:I *284:12 0.00178192
25 *450:I *284:12 6.93035e-05
26 *1391:I0 *284:12 0.000477976
27 *1392:I0 *284:24 4.6613e-06
28 *1392:I0 *284:31 2.40834e-05
29 *1393:I0 *1393:S 2.43561e-05
30 *1394:I0 *1393:S 2.07602e-05
31 *1394:I0 *284:31 3.90954e-05
32 *1422:D *284:12 1.36173e-05
33 *1424:D *1393:S 2.33093e-06
34 *1424:CLK *1393:S 0
35 *1425:D *284:24 9.19699e-05
36 *1425:D *284:31 0
37 *1442:D *284:24 2.47238e-05
38 *1463:D *1393:S 0
39 *1492:I *1393:S 5.30888e-06
40 *1589:I *1393:S 1.61174e-05
41 *146:34 *1393:S 0.00012974
42 *146:34 *284:24 8.34973e-05
43 *146:34 *284:31 4.10163e-05
44 *215:8 *1393:S 0.000422398
45 *243:79 *1393:S 1.71254e-05
46 *248:89 *284:24 8.56844e-05
47 *274:159 *284:12 4.53036e-05
48 *276:216 *1393:S 2.86299e-05
*RES
1 *1513:Z *284:12 16.83 
2 *284:12 *284:24 21.33 
3 *284:24 *1392:S 4.5 
4 *284:24 *284:31 1.53 
5 *284:31 *1394:S 4.5 
6 *284:31 *1393:S 23.85 
7 *284:12 *1391:S 9.27 
*END

*D_NET *285 0.0361038
*CONN
*I *1512:I I *D gf180mcu_fd_sc_mcu7t5v0__buf_2
*I *433:I I *D gf180mcu_fd_sc_mcu7t5v0__antenna
*I *435:I I *D gf180mcu_fd_sc_mcu7t5v0__antenna
*I *434:I I *D gf180mcu_fd_sc_mcu7t5v0__antenna
*I *1513:I I *D gf180mcu_fd_sc_mcu7t5v0__dlyb_1
*I *1467:D I *D gf180mcu_fd_sc_mcu7t5v0__dffrnq_1
*I *1291:A1 I *D gf180mcu_fd_sc_mcu7t5v0__or2_1
*I *410:I I *D gf180mcu_fd_sc_mcu7t5v0__antenna
*I *361:I I *D gf180mcu_fd_sc_mcu7t5v0__antenna
*I *1514:Z O *D gf180mcu_fd_sc_mcu7t5v0__dlyb_1
*CAP
1 *1512:I 0.000204272
2 *433:I 0.000200899
3 *435:I 0
4 *434:I 0
5 *1513:I 6.98988e-05
6 *1467:D 6.13733e-05
7 *1291:A1 0.000335266
8 *410:I 5.00434e-05
9 *361:I 0.00037263
10 *1514:Z 0
11 *285:104 0.000242601
12 *285:57 0.000654612
13 *285:51 0.00311158
14 *285:33 0.00311458
15 *285:27 0.00128026
16 *285:21 0.00122336
17 *285:6 0.000537801
18 *285:4 0.000204272
19 *361:I *1334:A1 0.000997349
20 *361:I *1514:I 0.000210269
21 *361:I *1532:I 0.00195605
22 *361:I *338:12 9.09626e-05
23 *1512:I *1334:A1 1.39839e-05
24 *1512:I *1532:I 0.000158258
25 *1512:I *326:27 0.000651248
26 *1513:I *1530:I 0.000204502
27 *285:21 *1532:I 0.000138056
28 *285:27 *1557:I 9.84908e-05
29 *285:27 *1559:I 0.000147938
30 *285:27 *323:16 0.000126088
31 *285:27 *323:18 0.000388647
32 *285:33 *1440:RN 1.94436e-05
33 *285:51 *1304:A1 0.000559648
34 *285:51 *1385:I1 7.07604e-05
35 *285:51 *1388:I1 3.12451e-05
36 *285:51 *1435:RN 0.00217405
37 *285:51 *1530:I 0.000246993
38 *285:51 *1555:I 0
39 *285:51 *289:38 0
40 *285:51 *314:6 0.00047198
41 *285:51 *314:16 0.000146755
42 *285:51 *330:10 0.000434554
43 *285:51 *330:30 8.57854e-05
44 *285:51 *334:14 0.000386921
45 *285:57 *1304:A1 0.000123839
46 dout[1] *285:51 7.5809e-06
47 dout[3] *285:51 1.69023e-06
48 dout[4] *285:27 2.95122e-05
49 dout[4] *285:33 0.000107369
50 dout[5] *285:27 1.31384e-05
51 *366:I *285:51 0.000302284
52 *441:I *433:I 3.68764e-05
53 *441:I *285:27 0
54 *1291:A2 *1291:A1 1.58537e-05
55 *1310:A1 *1291:A1 0.000481965
56 *1310:A2 *410:I 1.37426e-05
57 *1310:A2 *285:57 6.97586e-07
58 *1310:B *1291:A1 1.30613e-05
59 *1310:B *285:51 0.00084859
60 *1324:B *361:I 1.19154e-05
61 *1327:A2 *285:51 0.000111208
62 *1347:A2 *285:51 0.000968642
63 *1348:A2 *285:51 0.0025654
64 *1348:A2 *285:57 0.000668092
65 *1351:A2 *1291:A1 0.0010095
66 *1385:I0 *285:51 0
67 *1391:I0 *285:21 1.94121e-05
68 *1398:I1 *1467:D 2.33065e-05
69 *1398:S *1467:D 7.18089e-05
70 *1445:D *1291:A1 5.25016e-05
71 *1582:I *285:51 0.000516428
72 *1583:I *285:51 0.000237121
73 *1584:I *285:51 0.000913822
74 *1586:I *1513:I 0.000291749
75 *1587:I *433:I 0.00039726
76 *1587:I *285:27 0.000284804
77 *1591:I *285:51 0.00100242
78 *146:34 *361:I 0.000332757
79 *212:13 *361:I 1.29004e-05
80 *232:16 *285:51 0.000642227
81 *232:18 *285:51 0.000212092
82 *256:10 *285:27 3.59638e-05
83 *257:8 *285:21 1.3026e-05
84 *260:12 *433:I 0.000302466
85 *269:10 *285:57 5.53121e-05
86 *269:29 *1291:A1 8.68338e-05
87 *274:159 *1513:I 2.98728e-05
88 *274:159 *285:51 0.000976298
89 *276:77 *285:57 0.000274798
90 *276:91 *410:I 0.000153256
91 *276:91 *285:57 0.000207739
92 *283:8 *1512:I 0.000153231
*RES
1 *1514:Z *285:4 4.5 
2 *285:4 *285:6 4.5 
3 *285:6 *361:I 15.3 
4 *285:6 *285:21 5.49 
5 *285:21 *285:27 8.01 
6 *285:27 *285:33 10.89 
7 *285:33 *285:51 42.12 
8 *285:51 *285:57 7.56 
9 *285:57 *410:I 4.95 
10 *285:57 *1291:A1 17.46 
11 *285:51 *1467:D 9.45 
12 *285:33 *1513:I 5.85 
13 *285:27 *434:I 4.5 
14 *285:21 *285:104 0.27 
15 *285:104 *435:I 4.5 
16 *285:104 *433:I 7.11 
17 *285:4 *1512:I 7.29 
*END

*D_NET *286 0.00393286
*CONN
*I *1597:I I *D gf180mcu_fd_sc_mcu7t5v0__buf_2
*I *1381:A2 I *D gf180mcu_fd_sc_mcu7t5v0__nor3_1
*I *1457:Q O *D gf180mcu_fd_sc_mcu7t5v0__dffsnq_1
*CAP
1 *1597:I 0.000602998
2 *1381:A2 0.000675531
3 *1457:Q 0
4 *286:4 0.00127853
5 *1381:A2 *1526:I 8.14155e-05
6 *1381:A2 *296:10 4.63105e-05
7 *1381:A2 *296:116 0.000103695
8 *1597:I *1457:SETN 0
9 *1597:I *1552:I 1.39839e-05
10 *1597:I *305:8 8.86034e-05
11 cmp_clk *1597:I 6.92926e-05
12 *1252:I *1381:A2 7.06099e-06
13 *1383:A2 *1597:I 0
14 *1458:D *1381:A2 0.000121774
15 *4:30 *1597:I 1.86887e-06
16 *100:16 *1381:A2 0.000492033
17 *121:24 *1381:A2 0.000349769
*RES
1 *1457:Q *286:4 4.5 
2 *286:4 *1381:A2 18.9 
3 *286:4 *1597:I 8.19 
*END

*D_NET *287 0.0184032
*CONN
*I *1305:B I *D gf180mcu_fd_sc_mcu7t5v0__oai21_1
*I *1256:I I *D gf180mcu_fd_sc_mcu7t5v0__clkinv_1
*I *1345:A1 I *D gf180mcu_fd_sc_mcu7t5v0__nor2_1
*I *1287:A1 I *D gf180mcu_fd_sc_mcu7t5v0__nand2_1
*I *1295:A1 I *D gf180mcu_fd_sc_mcu7t5v0__or2_1
*I *1294:A1 I *D gf180mcu_fd_sc_mcu7t5v0__nor2_2
*I *1515:Z O *D gf180mcu_fd_sc_mcu7t5v0__dlyb_1
*CAP
1 *1305:B 0.000554183
2 *1256:I 0.000342436
3 *1345:A1 0.000243504
4 *1287:A1 0.000449311
5 *1295:A1 0
6 *1294:A1 0.00011912
7 *1515:Z 0.000137137
8 *287:46 0.000745152
9 *287:44 0.000578819
10 *287:33 0.000454926
11 *287:20 0.000975887
12 *287:10 0.00127721
13 *1256:I *1551:I 0.000604688
14 *1256:I *305:12 0.000133678
15 *1287:A1 *363:I 0.000491702
16 *1287:A1 *304:12 2.13877e-05
17 *1305:B *1331:A1 0
18 *1305:B *343:12 0.000175671
19 *1345:A1 *304:12 7.95083e-05
20 *287:20 *1376:A2 2.49212e-05
21 *287:20 *1515:I 9.68262e-05
22 *287:20 *343:12 7.84278e-05
23 *287:33 *1294:A2 2.84236e-06
24 *287:33 *289:116 2.88577e-05
25 *287:44 *1548:I 0.000461735
26 *287:44 *289:116 0.000159146
27 *1287:A2 *1287:A1 4.58052e-07
28 *1287:A2 *287:33 9.86031e-05
29 *1349:A1 *1305:B 0.000609345
30 *1372:B *1287:A1 0.000181527
31 *1374:A1 *1287:A1 6.28565e-05
32 *1374:B2 *1287:A1 0.000383727
33 *1374:B2 *287:20 0.00131214
34 *1374:B2 *287:44 0.000575655
35 *1374:B2 *287:46 0.000442671
36 *1376:B *1287:A1 8.56844e-05
37 *1376:B *287:44 0.000604387
38 *1376:B *287:46 0.000467419
39 *1383:A3 *287:33 4.30294e-05
40 *1397:A2 *1294:A1 0.000172555
41 *1407:B2 *287:10 1.45601e-05
42 *1430:CLK *287:10 0.000281601
43 *1452:D *1345:A1 7.30552e-06
44 *1452:CLK *1256:I 3.12451e-05
45 *1453:D *1287:A1 0.00056034
46 *1502:I *1305:B 1.25151e-05
47 *1505:I *1294:A1 9.04462e-05
48 *1505:I *287:33 8.67249e-05
49 *1521:I *1305:B 6.21801e-05
50 *104:12 *1256:I 0.000679046
51 *105:14 *287:20 5.5527e-06
52 *105:14 *287:44 1.3598e-05
53 *110:14 *1294:A1 0.00011767
54 *110:14 *287:20 7.48186e-05
55 *110:33 *287:20 0.000362509
56 *110:33 *287:33 1.30802e-05
57 *120:69 *1287:A1 1.95007e-05
58 *123:16 *287:10 0
59 *159:41 *1305:B 2.73833e-05
60 *165:6 *1345:A1 8.49208e-05
61 *223:36 *1256:I 0.000153502
62 *265:14 *1345:A1 0.000301768
63 *265:38 *1345:A1 9.37835e-05
64 *273:10 *1256:I 3.01487e-05
65 *274:14 *1294:A1 7.60991e-06
66 *274:14 *287:20 7.75929e-06
67 *274:34 *287:20 4.94791e-06
68 *274:47 *1305:B 0.00152198
69 *274:47 *287:20 0.000379424
70 *276:14 *1305:B 2.18129e-05
71 *280:48 *1287:A1 1.12606e-05
72 *280:72 *1287:A1 2.01743e-05
73 *280:72 *1345:A1 2.69292e-05
*RES
1 *1515:Z *287:10 10.08 
2 *287:10 *287:20 10.8 
3 *287:20 *1294:A1 5.67 
4 *287:20 *287:33 10.89 
5 *287:33 *1295:A1 4.5 
6 *287:33 *287:44 7.56 
7 *287:44 *287:46 1.35 
8 *287:46 *1287:A1 13.68 
9 *287:46 *1345:A1 19.53 
10 *287:44 *1256:I 13.23 
11 *287:10 *1305:B 14.94 
*END

*D_NET *288 0.0205464
*CONN
*I *1299:A2 I *D gf180mcu_fd_sc_mcu7t5v0__oai21_1
*I *1293:A3 I *D gf180mcu_fd_sc_mcu7t5v0__or3_1
*I *1281:A3 I *D gf180mcu_fd_sc_mcu7t5v0__nand4_1
*I *1288:A1 I *D gf180mcu_fd_sc_mcu7t5v0__aoi21_1
*I *1259:I I *D gf180mcu_fd_sc_mcu7t5v0__clkinv_1
*I *1381:A1 I *D gf180mcu_fd_sc_mcu7t5v0__nor3_1
*I *1516:Z O *D gf180mcu_fd_sc_mcu7t5v0__dlyb_1
*CAP
1 *1299:A2 0.000788195
2 *1293:A3 0
3 *1281:A3 1.91428e-05
4 *1288:A1 0
5 *1259:I 0.000939666
6 *1381:A1 0.000431226
7 *1516:Z 0.000578795
8 *288:76 0.000846818
9 *288:34 0.00141375
10 *288:32 0.000284541
11 *288:26 0.000501027
12 *288:20 0.000877622
13 *1259:I *1290:A2 3.76821e-05
14 *1299:A2 *1293:A1 1.71254e-05
15 *1299:A2 *1293:A2 0.00022568
16 *1299:A2 *1299:A1 3.12451e-05
17 *1299:A2 *1465:RN 2.22166e-05
18 *1299:A2 *1527:I 9.6749e-05
19 *1299:A2 *1601:I 0.000402615
20 *1299:A2 *341:14 6.13317e-05
21 *1299:A2 *345:25 0.00130826
22 *1381:A1 *1460:RN 0.000140583
23 *1381:A1 *1461:RN 2.23677e-05
24 *1381:A1 *296:34 9.15668e-05
25 *1381:A1 *298:65 3.91998e-05
26 *1381:A1 *298:76 6.66435e-05
27 *288:20 *1465:RN 1.05883e-05
28 *288:26 *341:14 0.000763909
29 *288:76 *1293:A2 1.478e-05
30 *288:76 *1465:RN 1.14307e-05
31 *376:I *288:20 0.000140218
32 *443:I *1299:A2 0.00076024
33 *1273:A2 *288:20 2.26978e-05
34 *1280:A1 *1381:A1 9.09638e-05
35 *1280:A1 *288:32 0.0013156
36 *1280:A1 *288:34 0.000305231
37 *1280:A3 *1281:A3 3.69577e-05
38 *1288:A2 *1259:I 0.000545949
39 *1369:A2 *1259:I 0.000160557
40 *1380:A1 *288:32 0.000404867
41 *1382:A1 *1281:A3 0.000158798
42 *1382:A1 *288:32 0.000396822
43 *1408:A3 *1299:A2 0.000155323
44 *1410:A3 *1299:A2 5.78854e-06
45 *1460:CLK *288:20 0.000101708
46 *1460:CLK *288:26 8.56177e-05
47 *1460:CLK *288:32 0.000167219
48 *1462:D *1299:A2 0.00033519
49 *1462:D *288:20 0.000228541
50 *1462:D *288:76 2.09112e-05
51 *1464:D *1299:A2 2.25258e-05
52 *1471:I *288:20 7.4587e-06
53 *1488:I *1299:A2 4.71159e-05
54 *1529:I *1299:A2 8.68281e-06
55 *1569:I *1299:A2 0.000770509
56 *1571:I *1381:A1 1.83931e-05
57 *4:30 *1299:A2 0.000165351
58 *4:30 *288:20 6.26942e-05
59 *86:18 *1259:I 0.000409211
60 *100:16 *1381:A1 0.000415708
61 *100:31 *288:26 4.93289e-06
62 *100:31 *288:32 6.81857e-06
63 *100:54 *1299:A2 0.000172894
64 *100:58 *1299:A2 0.000145556
65 *111:28 *1281:A3 3.55118e-05
66 *120:69 *288:20 4.27041e-05
67 *121:24 *1299:A2 0.000435219
68 *124:16 *288:20 1.88856e-05
69 *208:399 *288:20 6.96817e-05
70 *208:401 *288:20 3.2607e-05
71 *210:17 *1381:A1 0.000449922
72 *210:17 *288:32 0.000841561
73 *210:17 *288:34 0.000335888
74 *210:23 *1381:A1 0.000164916
75 *239:83 *288:20 0.000349455
76 *239:97 *288:26 2.82325e-05
*RES
1 *1516:Z *288:20 26.82 
2 *288:20 *288:26 11.25 
3 *288:26 *288:32 9.54 
4 *288:32 *288:34 0.99 
5 *288:34 *1381:A1 13.5 
6 *288:34 *1259:I 24.48 
7 *288:32 *1288:A1 9 
8 *288:26 *1281:A3 4.95 
9 *288:20 *288:76 0.45 
10 *288:76 *1293:A3 4.5 
11 *288:76 *1299:A2 42.57 
*END

*D_NET *289 0.046259
*CONN
*I *1284:A1 I *D gf180mcu_fd_sc_mcu7t5v0__nand2_1
*I *1295:A2 I *D gf180mcu_fd_sc_mcu7t5v0__or2_1
*I *357:I I *D gf180mcu_fd_sc_mcu7t5v0__antenna
*I *362:I I *D gf180mcu_fd_sc_mcu7t5v0__antenna
*I *1257:I I *D gf180mcu_fd_sc_mcu7t5v0__clkinv_1
*I *363:I I *D gf180mcu_fd_sc_mcu7t5v0__antenna
*I *349:I I *D gf180mcu_fd_sc_mcu7t5v0__antenna
*I *1294:A2 I *D gf180mcu_fd_sc_mcu7t5v0__nor2_2
*I *396:I I *D gf180mcu_fd_sc_mcu7t5v0__antenna
*I *436:I I *D gf180mcu_fd_sc_mcu7t5v0__antenna
*I *395:I I *D gf180mcu_fd_sc_mcu7t5v0__antenna
*I *1395:A1 I *D gf180mcu_fd_sc_mcu7t5v0__nor2_1
*I *1378:A1 I *D gf180mcu_fd_sc_mcu7t5v0__nor2_1
*I *1517:Z O *D gf180mcu_fd_sc_mcu7t5v0__dlyb_1
*CAP
1 *1284:A1 0.000173431
2 *1295:A2 0
3 *357:I 0.000161344
4 *362:I 0
5 *1257:I 0
6 *363:I 0.000206759
7 *349:I 0.000637067
8 *1294:A2 0.000200888
9 *396:I 0.000373657
10 *436:I 0
11 *395:I 0
12 *1395:A1 0
13 *1378:A1 5.36194e-05
14 *1517:Z 3.34208e-05
15 *289:171 0.000161344
16 *289:134 0.00135565
17 *289:122 0.000668512
18 *289:118 0.000314192
19 *289:116 0.000406802
20 *289:99 0.00197495
21 *289:53 0.000785772
22 *289:38 0.00117118
23 *289:25 0.000796463
24 *289:14 0.00283975
25 *289:6 0.00448035
26 *396:I *1419:RN 0.000266408
27 *396:I *1420:RN 0.000332674
28 *396:I *1556:I 0.000938836
29 *396:I *315:19 0.000397953
30 *1284:A1 *1405:A1 0.000218699
31 *289:14 *292:16 0.00279665
32 *289:14 *292:78 0.000842424
33 *289:14 *332:8 0
34 *289:14 *332:40 0
35 *289:53 *404:I 0.000624383
36 *289:53 *1555:I 3.55404e-05
37 *289:53 *1556:I 0.000434733
38 *289:53 *315:19 0.000497138
39 *289:99 *1246:I 2.69791e-05
40 *289:99 *1311:A1 0.000181128
41 *289:99 *1548:I 0.000270563
42 *289:99 *292:47 0.000164233
43 *289:99 *302:27 0.000133096
44 *289:116 *1548:I 0.000141857
45 *289:134 *1379:A1 0.000100153
46 *289:134 *1598:I 0.000479244
47 dac_p[6] *349:I 8.56844e-05
48 *353:I *289:14 0
49 *366:I *289:38 0
50 *366:I *289:53 0
51 *424:I *289:14 0.000118847
52 *1265:I *349:I 0.00015767
53 *1267:I *349:I 3.34868e-06
54 *1269:I *349:I 0.000323563
55 *1269:I *363:I 0.000206621
56 *1287:A1 *363:I 0.000491702
57 *1287:A2 *289:116 0.000216248
58 *1287:A2 *289:118 0.000534044
59 *1287:A2 *289:122 0.000472524
60 *1287:A2 *289:134 2.98735e-05
61 *1291:A2 *289:6 2.07522e-05
62 *1291:A2 *289:99 0.00024727
63 *1307:A2 *289:14 2.15171e-05
64 *1315:B *289:25 0.000674413
65 *1315:B *289:38 0.000698715
66 *1318:A1 *289:14 0
67 *1320:A2 *289:14 0.000227464
68 *1324:A2 *289:14 0
69 *1327:A2 *289:25 8.21312e-05
70 *1327:A2 *289:38 9.83074e-05
71 *1347:B *289:14 0.000117845
72 *1354:B *289:6 1.80559e-05
73 *1354:B *289:14 0.00438465
74 *1354:B *289:99 1.80607e-05
75 *1360:A2 *289:99 9.74601e-05
76 *1361:A2 *289:99 0.000369329
77 *1363:B *289:99 0.000702689
78 *1366:A2 *349:I 5.8625e-05
79 *1367:A2 *289:134 8.38345e-06
80 *1372:B *349:I 0.000512201
81 *1372:B *363:I 0.000190167
82 *1373:A1 *289:99 0.00018576
83 *1374:B1 *289:134 3.51319e-05
84 *1374:B2 *289:134 4.6613e-06
85 *1378:A2 *1378:A1 1.0415e-05
86 *1383:A3 *1294:A2 0.000320271
87 *1383:A3 *289:118 0
88 *1385:I0 *289:53 0.000348062
89 *1386:S *289:14 0
90 *1395:A2 *1378:A1 7.191e-07
91 *1397:A2 *1284:A1 0.000172555
92 *1398:I1 *289:99 0
93 *1400:A1 *289:14 0.000252872
94 *1406:A1 *289:99 0.00027566
95 *1416:CLK *289:14 0.000193098
96 *1435:D *289:14 9.34436e-06
97 *1451:D *349:I 0.00014101
98 *1452:D *289:134 0.000462725
99 *1452:CLK *357:I 0.000154994
100 *1470:I *289:99 3.58674e-05
101 *1479:I *289:99 0.000355549
102 *1481:I *289:14 9.08681e-05
103 *1563:I *289:14 0.000187936
104 *1564:I *349:I 1.84104e-05
105 *1581:I *289:38 0.000183282
106 *1581:I *289:53 0.000282238
107 *7:26 *289:38 0.000239136
108 *94:16 *289:14 7.26211e-05
109 *104:12 *357:I 0.000104055
110 *108:14 *289:99 0.000414426
111 *110:14 *289:99 7.191e-07
112 *110:14 *289:116 0
113 *120:69 *363:I 0.000219444
114 *120:69 *1284:A1 8.78959e-06
115 *120:69 *1294:A2 0.000374198
116 *120:69 *289:118 0
117 *120:69 *289:134 0.000281266
118 *134:26 *289:14 0.000119568
119 *187:22 *289:14 0.000163093
120 *247:24 *349:I 0.000836533
121 *248:48 *363:I 0.000499457
122 *249:12 *349:I 2.79072e-05
123 *252:10 *396:I 0.000294431
124 *269:65 *289:14 0.000214148
125 *269:65 *289:25 0.000247389
126 *269:69 *289:14 0.000608166
127 *273:10 *357:I 0.000159146
128 *273:10 *289:118 4.10247e-05
129 *273:10 *289:122 0.000156325
130 *273:10 *289:134 0.00014891
131 *273:12 *289:134 1.16696e-05
132 *273:61 *349:I 1.23715e-05
133 *273:61 *289:134 3.46591e-05
134 *274:14 *1284:A1 7.85533e-05
135 *276:114 *289:38 2.32816e-05
136 *276:147 *1284:A1 8.94491e-05
137 *285:51 *289:38 0
138 *287:33 *1294:A2 2.84236e-06
139 *287:33 *289:116 2.88577e-05
140 *287:44 *289:116 0.000159146
*RES
1 *1517:Z *289:6 4.77 
2 *289:6 *289:14 37.08 
3 *289:14 *1378:A1 4.77 
4 *289:14 *289:25 6.21 
5 *289:25 *1395:A1 9 
6 *289:25 *289:38 10.8 
7 *289:38 *395:I 4.5 
8 *289:38 *289:53 5.85 
9 *289:53 *436:I 4.5 
10 *289:53 *396:I 10.35 
11 *289:6 *289:99 24.93 
12 *289:99 *1294:A2 14.49 
13 *289:99 *289:116 6.66 
14 *289:116 *289:118 1.53 
15 *289:118 *289:122 1.62 
16 *289:122 *289:134 18.27 
17 *289:134 *349:I 20.88 
18 *289:134 *363:I 8.01 
19 *289:122 *1257:I 9 
20 *289:118 *289:171 4.5 
21 *289:171 *362:I 4.5 
22 *289:171 *357:I 6.21 
23 *289:116 *1295:A2 9 
24 *1294:A2 *1284:A1 19.62 
*END

*D_NET *290 0.0452828
*CONN
*I *1248:I I *D gf180mcu_fd_sc_mcu7t5v0__clkinv_1
*I *348:I I *D gf180mcu_fd_sc_mcu7t5v0__antenna
*I *1272:A3 I *D gf180mcu_fd_sc_mcu7t5v0__or4_2
*I *356:I I *D gf180mcu_fd_sc_mcu7t5v0__antenna
*I *1271:A1 I *D gf180mcu_fd_sc_mcu7t5v0__nor2_1
*I *355:I I *D gf180mcu_fd_sc_mcu7t5v0__antenna
*I *370:I I *D gf180mcu_fd_sc_mcu7t5v0__antenna
*I *1321:A1 I *D gf180mcu_fd_sc_mcu7t5v0__nor2_4
*I *1337:A1 I *D gf180mcu_fd_sc_mcu7t5v0__and3_1
*I *1325:A3 I *D gf180mcu_fd_sc_mcu7t5v0__nor4_4
*I *368:I I *D gf180mcu_fd_sc_mcu7t5v0__antenna
*I *437:I I *D gf180mcu_fd_sc_mcu7t5v0__antenna
*I *374:I I *D gf180mcu_fd_sc_mcu7t5v0__antenna
*I *1518:Z O *D gf180mcu_fd_sc_mcu7t5v0__buf_2
*CAP
1 *1248:I 0.000325288
2 *348:I 0.000157118
3 *1272:A3 0
4 *356:I 0
5 *1271:A1 0.000527859
6 *355:I 0.0023861
7 *370:I 0
8 *1321:A1 9.93424e-05
9 *1337:A1 0.000634411
10 *1325:A3 0
11 *368:I 0.00024343
12 *437:I 0
13 *374:I 0.000115858
14 *1518:Z 0
15 *290:188 0.00110376
16 *290:151 0.00145235
17 *290:129 0.00143956
18 *290:123 0.00113642
19 *290:61 0.000984275
20 *290:55 0.000614992
21 *290:40 0.000850386
22 *290:34 0.000815777
23 *290:21 0.000374607
24 *290:10 0.000383508
25 *290:6 0.00265375
26 *355:I *406:I 0.000128988
27 *355:I *1334:A1 0.00010138
28 *355:I *1440:RN 5.94874e-05
29 *355:I *1558:I 3.83662e-05
30 *355:I *317:24 1.86887e-06
31 *355:I *335:12 8.16311e-05
32 *1271:A1 *1445:RN 0.000924657
33 *1271:A1 *1456:RN 0.000210967
34 *1337:A1 *312:14 4.6613e-06
35 *290:10 *1390:I1 9.9698e-05
36 *290:10 *336:31 5.00297e-05
37 *290:34 *1390:I1 0.000224565
38 *290:34 *327:53 8.41614e-05
39 *290:34 *327:55 0.000111653
40 *290:129 *292:47 0.000281392
41 *290:151 *1258:I 0.000981072
42 *290:151 *1270:A2 0.000161845
43 *290:151 *291:79 0.000623514
44 *290:151 *293:54 0.000429575
45 *290:151 *302:27 0
46 *290:151 *340:37 0.000732537
47 *290:188 *1430:SETN 9.3226e-06
48 *290:188 *1550:I 9.3226e-06
49 *290:188 *312:29 0.00137983
50 *1305:A1 *348:I 0.000449223
51 *1325:A1 *368:I 0
52 *1325:A2 *290:40 7.82711e-05
53 *1325:A2 *290:55 6.82913e-05
54 *1325:A2 *290:61 6.2083e-06
55 *1325:A4 *1337:A1 0
56 *1328:A1 *355:I 0.000816394
57 *1328:A1 *290:10 5.61844e-05
58 *1328:B *290:34 0
59 *1328:B *290:40 0
60 *1329:A3 *1321:A1 0.000297517
61 *1329:A4 *368:I 3.98088e-05
62 *1329:A4 *290:55 1.18076e-05
63 *1329:A4 *290:61 4.29222e-05
64 *1330:A2 *290:34 0.000478762
65 *1332:B *290:34 0
66 *1335:B *355:I 0
67 *1337:A2 *1337:A1 1.80607e-05
68 *1341:A1 *290:40 1.36506e-05
69 *1341:A3 *1337:A1 1.4382e-06
70 *1341:A4 *1337:A1 0
71 *1341:A4 *290:129 4.54378e-05
72 *1341:A4 *290:188 1.61995e-05
73 *1349:A1 *1248:I 0.000149777
74 *1349:A1 *290:188 0.00203382
75 *1354:B *1271:A1 0.000519716
76 *1362:B *374:I 2.73022e-06
77 *1362:B *290:10 6.78403e-06
78 *1365:A1 *290:34 0.000115036
79 *1372:A2 *348:I 0.000172084
80 *1400:A1 *290:151 0.000353002
81 *1400:A2 *290:151 2.48332e-05
82 *1400:B2 *290:129 0
83 *1400:B2 *290:188 0
84 *1401:A2 *290:151 0.000425401
85 *1422:D *355:I 8.91829e-05
86 *1427:D *290:151 2.08301e-05
87 *1441:D *355:I 3.73774e-06
88 *1441:CLK *355:I 0.000604143
89 *1445:CLK *1271:A1 0.000304729
90 *1445:CLK *290:151 0.000591145
91 *1448:CLK *1271:A1 0.000407545
92 *1501:I *348:I 6.96766e-06
93 *1518:I *374:I 0.000278898
94 *1518:I *290:10 0.000360446
95 *1537:I *1271:A1 0.000507135
96 *1544:I *368:I 0.000252313
97 *1544:I *290:40 0.000336491
98 *1574:I *1271:A1 0.00100086
99 *1575:I *1271:A1 5.90742e-06
100 *96:12 *1248:I 0.000435856
101 *96:12 *290:188 0.00156677
102 *97:60 *1337:A1 6.99395e-05
103 *97:60 *290:61 0.00024216
104 *108:43 *1337:A1 1.08935e-05
105 *109:24 *290:151 0.00111189
106 *123:45 *1248:I 2.956e-05
107 *177:24 *290:34 6.14007e-06
108 *177:24 *290:40 1.82153e-05
109 *191:20 *355:I 0
110 *192:8 *290:129 0.000150744
111 *192:8 *290:151 8.49208e-05
112 *205:25 *1321:A1 0.000308206
113 *206:14 *290:129 0.000177934
114 *209:23 *1271:A1 0.000646139
115 *209:25 *1271:A1 0.000338523
116 *219:18 *1271:A1 3.01487e-05
117 *229:51 *1337:A1 0.000204964
118 *229:51 *290:61 6.27691e-05
119 *229:72 *1337:A1 0.000113115
120 *231:50 *348:I 0.000247379
121 *233:20 *290:129 0.000417075
122 *241:62 *1271:A1 0.000175636
123 *243:21 *1271:A1 0.000846251
124 *243:67 *1321:A1 0.000400239
125 *243:101 *355:I 0.000113269
126 *265:38 *1271:A1 1.71254e-05
127 *266:20 *374:I 2.23197e-05
128 *268:25 *368:I 0.000108118
129 *268:25 *290:40 3.16864e-05
130 *274:159 *355:I 1.87032e-05
131 *276:46 *1271:A1 5.57637e-05
132 *276:46 *290:151 3.53897e-05
133 *280:10 *290:129 0.00228968
134 *284:12 *355:I 0.000852321
*RES
1 *1518:Z *290:6 9 
2 *290:6 *290:10 2.34 
3 *290:10 *374:I 9.81 
4 *290:10 *290:21 4.5 
5 *290:21 *437:I 4.5 
6 *290:21 *290:34 7.83 
7 *290:34 *290:40 7.38 
8 *290:40 *368:I 6.75 
9 *290:40 *290:55 5.49 
10 *290:55 *290:61 7.02 
11 *290:61 *1325:A3 4.5 
12 *290:61 *1337:A1 9 
13 *290:55 *1321:A1 11.07 
14 *290:34 *370:I 9 
15 *290:6 *355:I 26.37 
16 *1325:A3 *290:123 9 
17 *290:123 *290:129 12.24 
18 *290:129 *290:151 21.69 
19 *290:151 *1271:A1 23.58 
20 *290:151 *356:I 4.5 
21 *290:129 *1272:A3 4.5 
22 *290:123 *290:188 14.22 
23 *290:188 *348:I 15.39 
24 *290:188 *1248:I 7.47 
*END

*D_NET *291 0.0199354
*CONN
*I *1272:A2 I *D gf180mcu_fd_sc_mcu7t5v0__or4_2
*I *1270:A2 I *D gf180mcu_fd_sc_mcu7t5v0__nor2_2
*I *1316:A2 I *D gf180mcu_fd_sc_mcu7t5v0__and2_1
*I *1312:A2 I *D gf180mcu_fd_sc_mcu7t5v0__and3_1
*I *1247:I I *D gf180mcu_fd_sc_mcu7t5v0__inv_2
*I *1399:A2 I *D gf180mcu_fd_sc_mcu7t5v0__oai22_4
*I *1519:Z O *D gf180mcu_fd_sc_mcu7t5v0__buf_2
*CAP
1 *1272:A2 0
2 *1270:A2 0.000309961
3 *1316:A2 0.000334428
4 *1312:A2 0.000325508
5 *1247:I 6.83935e-05
6 *1399:A2 0.00119613
7 *1519:Z 0.000259446
8 *291:79 0.000923511
9 *291:44 0.00112333
10 *291:18 0.001055
11 *291:10 0.00112687
12 *1270:A2 *1270:A1 0.000428251
13 *1270:A2 *1548:I 6.91924e-05
14 *1316:A2 *404:I 0.00100888
15 *1316:A2 *1313:A1 0.000286386
16 *1316:A2 *1327:A1 0.000672875
17 *1316:A2 *328:60 0.000335562
18 *1399:A2 *312:29 0.000267638
19 *291:10 *404:I 0.000203448
20 *291:10 *292:16 0
21 *291:18 *292:8 4.57118e-05
22 *291:18 *312:29 0.000159589
23 *291:44 *404:I 0.00144941
24 *291:44 *292:16 4.76216e-06
25 *291:44 *292:78 1.64365e-05
26 *291:44 *328:10 2.52908e-05
27 *291:79 *312:29 0
28 *291:79 *340:37 2.36954e-05
29 *353:I *1316:A2 0.000208426
30 *353:I *291:44 6.58085e-05
31 *1264:I *291:79 0
32 *1311:A2 *1270:A2 4.36384e-06
33 *1312:A3 *1312:A2 9.85004e-05
34 *1328:B *1312:A2 0
35 *1363:B *1270:A2 0.000158798
36 *1399:A1 *291:79 1.61174e-05
37 *1400:A2 *1270:A2 6.03252e-05
38 *1400:A2 *291:79 0.000185473
39 *1400:A3 *291:79 9.86969e-05
40 *1400:B2 *291:79 7.94868e-06
41 *1437:CLK *1312:A2 0.000408152
42 *1480:I *1399:A2 8.50947e-05
43 *1480:I *291:18 5.51506e-05
44 *1507:I *1399:A2 2.2989e-05
45 *1546:I *1399:A2 4.05839e-05
46 *206:22 *1270:A2 0.000523924
47 *208:123 *1399:A2 2.65448e-05
48 *229:51 *291:44 3.5955e-06
49 *230:41 *1270:A2 0
50 *230:41 *1312:A2 0.000795502
51 *240:12 *291:10 0.000246917
52 *240:12 *291:18 7.85256e-05
53 *240:12 *291:44 0
54 *240:23 *291:79 0.000354728
55 *243:21 *291:10 4.93516e-05
56 *243:36 *291:44 0.000207305
57 *277:18 *1312:A2 0.000405732
58 *277:63 *1312:A2 0.000491717
59 *280:10 *1270:A2 0.000794564
60 *280:10 *291:79 0.00193553
61 *290:151 *1270:A2 0.000161845
62 *290:151 *291:79 0.000623514
*RES
1 *1519:Z *291:10 11.34 
2 *291:10 *291:18 7.47 
3 *291:18 *1399:A2 8.64 
4 *291:18 *1247:I 4.95 
5 *291:10 *291:44 13.77 
6 *291:44 *1312:A2 13.59 
7 *291:44 *1316:A2 13.86 
8 *1399:A2 *291:79 16.56 
9 *291:79 *1270:A2 13.32 
10 *291:79 *1272:A2 9 
*END

*D_NET *292 0.0286346
*CONN
*I *1307:A1 I *D gf180mcu_fd_sc_mcu7t5v0__and3_1
*I *1316:A1 I *D gf180mcu_fd_sc_mcu7t5v0__and2_1
*I *1272:A1 I *D gf180mcu_fd_sc_mcu7t5v0__or4_2
*I *1270:A1 I *D gf180mcu_fd_sc_mcu7t5v0__nor2_2
*I *1311:A1 I *D gf180mcu_fd_sc_mcu7t5v0__nor2_2
*I *1246:I I *D gf180mcu_fd_sc_mcu7t5v0__inv_2
*I *1520:Z O *D gf180mcu_fd_sc_mcu7t5v0__dlyb_1
*CAP
1 *1307:A1 0.000104153
2 *1316:A1 0.00023414
3 *1272:A1 0
4 *1270:A1 0.000150741
5 *1311:A1 2.47354e-05
6 *1246:I 0.00114586
7 *1520:Z 0.000126417
8 *292:78 0.00118094
9 *292:47 0.000335174
10 *292:41 0.000484147
11 *292:16 0.00215352
12 *292:8 0.00165228
13 *1246:I *1448:RN 0.000421151
14 *1307:A1 *1327:A1 0.000194612
15 *1307:A1 *328:60 0.00023273
16 *1311:A1 *302:27 0.000297517
17 *1316:A1 *1327:A1 0.00106067
18 *1316:A1 *1353:C 8.53366e-05
19 *1316:A1 *328:60 7.55739e-05
20 *292:16 *308:20 0.000203416
21 *292:41 *308:20 0.00102264
22 *292:47 *302:27 0.000276549
23 *292:78 *404:I 9.96624e-06
24 *292:78 *1353:C 1.73891e-06
25 dac_p[3] *1246:I 1.25963e-05
26 dac_p[6] *1246:I 0.000176088
27 dac_p[7] *1246:I 0.000155551
28 *359:I *1246:I 6.59012e-05
29 *1270:A2 *1270:A1 0.000428251
30 *1272:A4 *292:47 0.00015426
31 *1291:A2 *1246:I 0.00218855
32 *1313:A2 *1316:A1 0.000914064
33 *1313:A2 *292:8 0
34 *1313:A2 *292:78 0.000247393
35 *1328:B *1316:A1 3.33132e-06
36 *1360:A2 *1246:I 3.25099e-05
37 *1363:B *1270:A1 0.000220717
38 *1366:B *1246:I 0.000428433
39 *1400:A1 *292:16 0.000767431
40 *1479:I *1270:A1 7.62825e-05
41 *1487:I *1246:I 0.000109362
42 *94:16 *1246:I 3.95948e-05
43 *108:14 *292:47 3.44276e-05
44 *168:26 *1246:I 0.00129685
45 *206:22 *292:47 0.000465019
46 *230:41 *1270:A1 2.96615e-05
47 *233:20 *292:47 0.000971951
48 *239:12 *292:16 0.00100703
49 *239:41 *292:16 0.000479314
50 *239:41 *292:41 0.00246283
51 *280:10 *292:47 3.34303e-05
52 *289:14 *292:16 0.00279665
53 *289:14 *292:78 0.000842424
54 *289:99 *1246:I 2.69791e-05
55 *289:99 *1311:A1 0.000181128
56 *289:99 *292:47 0.000164233
57 *290:129 *292:47 0.000281392
58 *291:10 *292:16 0
59 *291:18 *292:8 4.57118e-05
60 *291:44 *292:16 4.76216e-06
61 *291:44 *292:78 1.64365e-05
*RES
1 *1520:Z *292:8 9.81 
2 *292:8 *292:16 14.13 
3 *292:16 *1246:I 26.46 
4 *292:16 *292:41 11.25 
5 *292:41 *292:47 8.1 
6 *292:47 *1311:A1 5.31 
7 *292:47 *1270:A1 15.3 
8 *292:41 *1272:A1 9 
9 *292:8 *292:78 11.25 
10 *292:78 *1316:A1 17.55 
11 *292:78 *1307:A1 6.03 
*END

*D_NET *293 0.0191278
*CONN
*I *1292:A2 I *D gf180mcu_fd_sc_mcu7t5v0__oai22_4
*I *1403:A2 I *D gf180mcu_fd_sc_mcu7t5v0__oai211_1
*I *1399:B2 I *D gf180mcu_fd_sc_mcu7t5v0__oai22_4
*I *1258:I I *D gf180mcu_fd_sc_mcu7t5v0__clkinv_1
*I *1290:A2 I *D gf180mcu_fd_sc_mcu7t5v0__nor2_1
*I *1284:A2 I *D gf180mcu_fd_sc_mcu7t5v0__nand2_1
*I *1521:Z O *D gf180mcu_fd_sc_mcu7t5v0__buf_2
*CAP
1 *1292:A2 0.000111346
2 *1403:A2 0
3 *1399:B2 0
4 *1258:I 0.000205176
5 *1290:A2 0.00152433
6 *1284:A2 9.10471e-05
7 *1521:Z 3.95682e-05
8 *293:54 0.000803966
9 *293:22 0.0017882
10 *293:14 0.000835431
11 *293:12 0.000269663
12 *293:6 0.000356758
13 *1290:A2 *1376:A2 0.000394452
14 *1290:A2 *1548:I 0.000364747
15 *1292:A2 *302:10 9.3226e-06
16 *1292:A2 *343:12 9.88893e-05
17 *293:12 *302:10 0.000111983
18 *293:14 *1405:A1 0.000101624
19 *293:22 *1405:A1 0.000781653
20 *293:54 *1376:A2 0.000342403
21 *293:54 *340:37 0.000290226
22 *431:I *1290:A2 0
23 *1259:I *1290:A2 3.76821e-05
24 *1264:I *293:54 0
25 *1369:A2 *1290:A2 0.000132632
26 *1372:A2 *1290:A2 6.77198e-05
27 *1376:A1 *1290:A2 6.11145e-06
28 *1377:A3 *1290:A2 0.000333648
29 *1383:A1 *1290:A2 0.000361193
30 *1400:A1 *1258:I 0.000285944
31 *1400:A1 *293:54 0.000486059
32 *1401:A2 *1258:I 0.000548238
33 *1402:A2 *293:54 0.000402423
34 *1402:A3 *293:54 0.000166728
35 *1403:B *293:12 0.000839419
36 *1403:B *293:14 0.000214596
37 *1407:A1 *1290:A2 0.000850213
38 *1407:B2 *293:54 0.000140894
39 *1452:D *1290:A2 0
40 *1469:I *1292:A2 0.000109304
41 *1469:I *293:12 0.000208725
42 *1571:I *1290:A2 0.000209098
43 *108:14 *293:54 0.000351066
44 *108:27 *293:54 0.000515148
45 *109:24 *1258:I 1.39839e-05
46 *118:14 *293:12 0.00082674
47 *118:14 *293:14 0.000363118
48 *118:14 *293:22 0.000789353
49 *208:19 *293:22 0.000136012
50 *208:371 *1290:A2 0.000205659
51 *208:371 *293:22 1.478e-05
52 *208:385 *1290:A2 8.003e-05
53 *230:41 *1258:I 2.29914e-05
54 *272:59 *1258:I 3.94291e-05
55 *274:14 *1284:A2 0.000331573
56 *274:14 *1290:A2 4.434e-05
57 *274:14 *293:22 9.3226e-06
58 *276:20 *293:14 2.79847e-05
59 *276:46 *1258:I 3.81908e-06
60 *282:29 *293:54 2.03413e-05
61 *290:151 *1258:I 0.000981072
62 *290:151 *293:54 0.000429575
*RES
1 *1521:Z *293:6 4.77 
2 *293:6 *293:12 8.28 
3 *293:12 *293:14 1.17 
4 *293:14 *293:22 8.01 
5 *293:22 *1284:A2 5.76 
6 *293:22 *1290:A2 26.91 
7 *293:14 *293:54 12.15 
8 *293:54 *1258:I 16.92 
9 *293:54 *1399:B2 4.5 
10 *293:12 *1403:A2 9 
11 *293:6 *1292:A2 5.49 
*END

*D_NET *294 0.0113268
*CONN
*I *1375:A3 I *D gf180mcu_fd_sc_mcu7t5v0__nor3_1
*I *1305:A2 I *D gf180mcu_fd_sc_mcu7t5v0__oai21_1
*I *1407:A2 I *D gf180mcu_fd_sc_mcu7t5v0__oai221_4
*I *1522:Z O *D gf180mcu_fd_sc_mcu7t5v0__dlyb_1
*CAP
1 *1375:A3 0.00159256
2 *1305:A2 0.000455454
3 *1407:A2 0.000187065
4 *1522:Z 0.00159256
5 *294:4 0.000642519
6 *1305:A2 *312:14 4.86292e-05
7 *1375:A3 *1432:RN 0.000128608
8 *1375:A3 *1601:I 3.12451e-05
9 *1375:A3 *296:116 0.000584175
10 *1375:A3 *312:14 0.000184753
11 *1283:A1 *1375:A3 0.00258397
12 *1349:A1 *1305:A2 0
13 *1349:A1 *1375:A3 0
14 *1349:A1 *1407:A2 0.000234262
15 *1375:A2 *1375:A3 0.000221903
16 *1408:B *1375:A3 0.000383082
17 *1409:B2 *1375:A3 2.19964e-05
18 *1414:A3 *1375:A3 0.000290089
19 *1415:A2 *1375:A3 1.63822e-05
20 *1433:D *1375:A3 0.00125287
21 *1466:CLK *1375:A3 4.57498e-05
22 *1488:I *1375:A3 0.000221903
23 *1502:I *1305:A2 9.5155e-05
24 *99:44 *1375:A3 0.000135174
25 *170:26 *1375:A3 2.21846e-05
26 *214:26 *1375:A3 0.000169837
27 *214:41 *1375:A3 0.000184678
*RES
1 *1522:Z *294:4 4.5 
2 *294:4 *1407:A2 6.66 
3 *294:4 *1305:A2 7.83 
4 *1522:Z *1375:A3 35.28 
*END

*D_NET *295 0.015027
*CONN
*I *1448:RN I *D gf180mcu_fd_sc_mcu7t5v0__dffrnq_1
*I *1548:I I *D gf180mcu_fd_sc_mcu7t5v0__clkbuf_1
*I *1523:Z O *D gf180mcu_fd_sc_mcu7t5v0__dlyb_1
*CAP
1 *1448:RN 0.000449383
2 *1548:I 0.00211975
3 *1523:Z 0
4 *295:4 0.00256913
5 *1548:I *1345:A2 0.000278178
6 *1548:I *1551:I 0.00012512
7 *1548:I *304:12 4.24123e-05
8 *1548:I *342:30 0.00104725
9 *391:I *1448:RN 6.34298e-06
10 *1246:I *1448:RN 0.000421151
11 *1249:I *1548:I 0.000464273
12 *1265:I *1548:I 0.0001135
13 *1269:I *1548:I 2.30619e-05
14 *1270:A2 *1548:I 6.91924e-05
15 *1290:A2 *1548:I 0.000364747
16 *1361:A1 *1448:RN 0.00110559
17 *1363:B *1448:RN 0.000459198
18 *1363:B *1548:I 0.000220358
19 *1369:A2 *1548:I 0
20 *1369:B *1548:I 0.000945342
21 *1372:A2 *1548:I 0.000160069
22 *1383:A3 *1548:I 0.000543015
23 *1404:A2 *1548:I 0.000422011
24 *1407:A1 *1548:I 2.65444e-06
25 *1426:D *1448:RN 4.96595e-05
26 *1429:D *1548:I 2.36914e-05
27 *1479:I *1548:I 0.000142755
28 *1493:I *1548:I 0.00101642
29 *1510:I *1548:I 4.8704e-06
30 *1567:I *1548:I 4.5008e-06
31 *1571:I *1548:I 4.86553e-05
32 *97:14 *1548:I 1.7022e-05
33 *104:12 *1548:I 1.90777e-06
34 *105:14 *1548:I 2.01109e-05
35 *168:26 *1448:RN 0.000314076
36 *209:6 *1448:RN 4.68887e-05
37 *245:31 *1448:RN 6.72417e-05
38 *245:31 *1548:I 0.000248502
39 *248:48 *1548:I 7.39331e-05
40 *248:65 *1548:I 8.10987e-05
41 *279:10 *1548:I 3.97987e-05
42 *287:44 *1548:I 0.000461735
43 *289:99 *1548:I 0.000270563
44 *289:116 *1548:I 0.000141857
*RES
1 *1523:Z *295:4 4.5 
2 *295:4 *1548:I 36.36 
3 *295:4 *1448:RN 19.35 
*END

*D_NET *296 0.0514709
*CONN
*I *401:I I *D gf180mcu_fd_sc_mcu7t5v0__antenna
*I *445:I I *D gf180mcu_fd_sc_mcu7t5v0__antenna
*I *409:I I *D gf180mcu_fd_sc_mcu7t5v0__antenna
*I *1426:RN I *D gf180mcu_fd_sc_mcu7t5v0__dffrnq_1
*I *1445:RN I *D gf180mcu_fd_sc_mcu7t5v0__dffrnq_1
*I *1456:RN I *D gf180mcu_fd_sc_mcu7t5v0__dffrnq_1
*I *403:I I *D gf180mcu_fd_sc_mcu7t5v0__antenna
*I *1547:Z O *D gf180mcu_fd_sc_mcu7t5v0__buf_1
*CAP
1 *401:I 4.59764e-05
2 *445:I 0
3 *409:I 0.000204359
4 *1426:RN 7.63858e-05
5 *1445:RN 0.000761614
6 *1456:RN 3.17712e-05
7 *403:I 0.000229206
8 *1547:Z 0.00044393
9 *296:118 0.000204359
10 *296:116 0.00353118
11 *296:69 0.00122497
12 *296:61 0.000702059
13 *296:46 0.00153808
14 *296:34 0.00298929
15 *296:10 0.00580363
16 *1445:RN *328:16 1.0415e-05
17 *296:10 *298:76 1.16291e-05
18 *296:34 *1460:RN 0.00026018
19 *296:34 *1598:I 0.0010162
20 *296:34 *298:65 0
21 *296:34 *342:30 4.34467e-06
22 *296:46 *1598:I 0.00136311
23 *296:116 *1434:RN 0.000181007
24 *296:116 *1601:I 0.00016804
25 busy *403:I 2.65444e-06
26 dac_n[6] *296:10 0.000168586
27 dac_n[7] *296:10 0.000181534
28 dac_p[3] *296:46 0.00114659
29 samp_bot *296:61 6.05946e-05
30 *351:I *401:I 0.000143204
31 *364:I *401:I 4.843e-05
32 *364:I *296:116 0.000155816
33 *369:I *409:I 0
34 *382:I *296:116 3.3894e-05
35 *414:I *296:116 6.43629e-05
36 *418:I *296:116 0.00021344
37 *1249:I *296:34 0
38 *1252:I *296:10 0
39 *1260:I *296:46 0
40 *1260:I *296:61 0.000113237
41 *1262:I *296:61 3.53326e-05
42 *1271:A1 *1445:RN 0.000924657
43 *1271:A1 *1456:RN 0.000210967
44 *1277:A1 *296:116 1.73058e-05
45 *1277:A2 *296:116 0
46 *1280:A2 *296:34 8.73419e-05
47 *1283:A1 *296:116 0.000318199
48 *1291:A2 *296:69 1.38782e-05
49 *1310:B *1426:RN 3.32853e-05
50 *1324:B *409:I 0.000312424
51 *1348:A1 *403:I 0
52 *1348:A1 *296:46 0.000106067
53 *1348:A2 *296:61 0.00239974
54 *1350:B *1445:RN 0.000250101
55 *1354:B *296:46 0.000423105
56 *1354:B *296:69 0.000150744
57 *1363:A1 *296:46 0.000264706
58 *1366:A2 *296:34 8.14729e-06
59 *1369:B *296:34 0.000112284
60 *1374:A1 *296:34 7.04887e-05
61 *1375:A3 *296:116 0.000584175
62 *1381:A1 *296:34 9.15668e-05
63 *1381:A2 *296:10 4.63105e-05
64 *1381:A2 *296:116 0.000103695
65 *1384:A1 *296:116 0.000154623
66 *1384:B *296:34 0
67 *1384:B *296:116 0.000157988
68 *1393:S *401:I 0
69 *1398:S *1445:RN 0
70 *1408:B *296:116 4.06197e-05
71 *1409:B2 *296:116 7.35899e-05
72 *1414:A3 *296:116 0.000290089
73 *1432:D *296:116 0.000111186
74 *1445:D *296:61 0.00250087
75 *1446:D *1445:RN 0.000157047
76 *1447:D *296:69 1.4384e-05
77 *1450:D *296:34 0.000215897
78 *1450:D *296:46 0.000329864
79 *1454:D *296:34 0.000288364
80 *1458:D *296:10 0.000121238
81 *1458:D *296:116 4.85447e-05
82 *1459:D *296:69 0.000314853
83 *1460:D *296:116 0.00111994
84 *1476:I *296:116 3.42798e-05
85 *1503:I *296:46 0.00115415
86 *1537:I *1445:RN 0.000522617
87 *1567:I *296:10 7.03142e-05
88 *1570:I *296:34 1.39946e-05
89 *1571:I *296:34 0.000613075
90 *1575:I *296:46 7.49728e-06
91 *86:18 *296:34 0.00238397
92 *99:44 *296:116 0.000164863
93 *100:16 *296:34 7.72112e-05
94 *121:24 *296:116 8.57589e-05
95 *122:20 *296:34 0.000183534
96 *122:20 *296:46 0.000110918
97 *126:28 *296:116 3.08806e-06
98 *170:26 *296:116 3.47359e-05
99 *170:55 *296:116 1.17934e-05
100 *206:43 *296:34 0.000216633
101 *225:14 *296:116 0
102 *228:10 *296:116 0.00100049
103 *229:22 *403:I 4.936e-05
104 *229:22 *296:46 2.72344e-05
105 *240:23 *1445:RN 6.51832e-05
106 *241:111 *409:I 0.000397734
107 *241:119 *401:I 0.000166798
108 *241:119 *296:116 0.00185072
109 *243:21 *1445:RN 0.00238775
110 *243:21 *1456:RN 0.000210967
111 *263:10 *1426:RN 1.26863e-05
112 *263:10 *296:69 5.72289e-05
113 *265:38 *296:46 0.0027315
114 *272:109 *296:116 0.000212277
115 *276:203 *296:116 7.28717e-05
116 *276:216 *296:116 8.376e-05
117 *276:220 *409:I 0
118 *280:48 *296:34 0.000818187
119 *281:29 *296:46 0
*RES
1 *1547:Z *296:10 12.6 
2 *296:10 *296:34 46.08 
3 *296:34 *296:46 20.43 
4 *296:46 *403:I 5.94 
5 *296:46 *296:61 15.93 
6 *296:61 *296:69 7.65 
7 *296:69 *1456:RN 9.63 
8 *296:69 *1445:RN 18.9 
9 *296:61 *1426:RN 5.22 
10 *296:10 *296:116 29.79 
11 *296:116 *296:118 4.5 
12 *296:118 *409:I 7.11 
13 *296:118 *445:I 4.5 
14 *296:116 *401:I 9.81 
*END

*D_NET *297 0.0151093
*CONN
*I *1598:I I *D gf180mcu_fd_sc_mcu7t5v0__buf_2
*I *1260:ZN O *D gf180mcu_fd_sc_mcu7t5v0__clkinv_1
*CAP
1 *1598:I 0.00153193
2 *1260:ZN 0.00153193
3 *1598:I *1379:A1 0.000151442
4 *1598:I *1454:RN 9.85467e-05
5 *1598:I *304:14 7.66748e-05
6 dac_p[3] *1598:I 0.000226227
7 *1260:I *1598:I 3.32853e-05
8 *1269:I *1598:I 2.69605e-05
9 *1304:A2 *1598:I 0.000164305
10 *1336:A1 *1598:I 2.56651e-06
11 *1348:A1 *1598:I 1.03724e-05
12 *1357:A2 *1598:I 0.000669238
13 *1360:A2 *1598:I 3.76583e-05
14 *1367:A2 *1598:I 0
15 *1373:A2 *1598:I 2.55518e-05
16 *1426:CLK *1598:I 0
17 *1450:D *1598:I 1.07649e-05
18 *1487:I *1598:I 0.000352747
19 *1564:I *1598:I 0.00043693
20 *109:24 *1598:I 0.000104322
21 *120:12 *1598:I 2.14322e-06
22 *122:20 *1598:I 0.0036758
23 *134:26 *1598:I 1.254e-05
24 *265:38 *1598:I 0.00133874
25 *281:10 *1598:I 0.00173007
26 *289:134 *1598:I 0.000479244
27 *296:34 *1598:I 0.0010162
28 *296:46 *1598:I 0.00136311
*RES
1 *1260:ZN *1598:I 49.59 
*END

*D_NET *298 0.0651506
*CONN
*I *1547:I I *D gf180mcu_fd_sc_mcu7t5v0__buf_1
*I *444:I I *D gf180mcu_fd_sc_mcu7t5v0__antenna
*I *406:I I *D gf180mcu_fd_sc_mcu7t5v0__antenna
*I *446:I I *D gf180mcu_fd_sc_mcu7t5v0__antenna
*I *1447:RN I *D gf180mcu_fd_sc_mcu7t5v0__dffrnq_1
*I *404:I I *D gf180mcu_fd_sc_mcu7t5v0__antenna
*I *1446:RN I *D gf180mcu_fd_sc_mcu7t5v0__dffrnq_1
*I *1548:Z O *D gf180mcu_fd_sc_mcu7t5v0__clkbuf_1
*CAP
1 *1547:I 0
2 *444:I 0.000602052
3 *406:I 0.00225101
4 *446:I 0
5 *1447:RN 0
6 *404:I 0.00227535
7 *1446:RN 5.10144e-05
8 *1548:Z 0
9 *298:86 0.00857989
10 *298:76 0.00613069
11 *298:65 0.000808363
12 *298:26 0.00445349
13 *298:14 0.00619522
14 *298:4 0.0044726
15 *404:I *1314:A1 4.10247e-05
16 *404:I *1353:C 0.00178611
17 *404:I *332:8 0.000765677
18 *404:I *332:40 0.00100833
19 *406:I *1333:B 9.08031e-05
20 *406:I *1391:I1 4.5354e-05
21 *406:I *1437:RN 3.01487e-05
22 *406:I *1440:RN 0.000528742
23 *406:I *1441:RN 0.000142437
24 *406:I *1531:I 0
25 *406:I *1557:I 0.00047599
26 *406:I *1559:I 0.000535021
27 *406:I *336:16 0.00027389
28 *406:I *337:43 0.000878672
29 *1446:RN *312:29 2.30653e-05
30 *298:14 *342:30 0.000769885
31 *298:65 *1538:I 0.000442189
32 *298:65 *342:30 0.000362773
33 dac_n[6] *298:76 1.18076e-06
34 dac_n[7] *298:76 5.17806e-05
35 *353:I *404:I 0.000213576
36 *355:I *406:I 0.000128988
37 *358:I *406:I 1.90777e-06
38 *366:I *404:I 4.46848e-05
39 *405:I *404:I 0
40 *419:I *444:I 8.37322e-05
41 *424:I *404:I 1.19696e-05
42 *1290:A1 *298:14 0.00159275
43 *1306:A1 *404:I 2.84369e-05
44 *1313:A2 *404:I 0.000149965
45 *1316:A2 *404:I 0.00100888
46 *1335:A2 *406:I 3.73774e-06
47 *1350:B *1446:RN 0.000153801
48 *1354:A2 *298:26 0
49 *1355:A2 *444:I 0.000325634
50 *1357:B *298:26 0.00253314
51 *1373:B *298:14 0
52 *1374:B1 *298:14 0
53 *1381:A1 *298:65 3.91998e-05
54 *1381:A1 *298:76 6.66435e-05
55 *1385:I0 *404:I 0.0001907
56 *1387:I0 *404:I 0
57 *1396:A2 *298:76 7.23061e-05
58 *1422:D *406:I 5.40416e-05
59 *1425:D *406:I 0.00128434
60 *1435:D *404:I 0.000121231
61 *1441:D *406:I 2.76913e-05
62 *1442:D *406:I 8.841e-05
63 *1442:CLK *406:I 7.20334e-05
64 *1443:D *406:I 0.000167556
65 *1458:D *298:76 4.34597e-05
66 *1490:I *406:I 7.84041e-05
67 *1567:I *298:14 0.000142831
68 *1567:I *298:65 0.000216019
69 *1567:I *298:76 0.000336951
70 *1571:I *298:14 0
71 *86:18 *298:76 0
72 *100:16 *298:76 7.86261e-05
73 *134:26 *404:I 0.000164916
74 *166:24 *298:26 0.000203041
75 *172:22 *406:I 0.000368925
76 *172:22 *444:I 7.01042e-05
77 *191:34 *298:86 0
78 *225:26 *298:86 0.000419726
79 *232:56 *404:I 0.000330577
80 *233:20 *298:14 0.00302483
81 *236:14 *298:86 6.96086e-05
82 *241:62 *404:I 0
83 *243:21 *404:I 0.000254169
84 *243:36 *404:I 3.11335e-05
85 *243:67 *406:I 0.000236142
86 *243:79 *406:I 0.000532243
87 *243:101 *406:I 0.00120859
88 *248:65 *298:14 0.0020795
89 *252:10 *404:I 0
90 *270:37 *406:I 2.76118e-05
91 *274:159 *406:I 0.000283695
92 *276:192 *406:I 0.000112593
93 *280:31 *298:14 0
94 *289:53 *404:I 0.000624383
95 *291:10 *404:I 0.000203448
96 *291:44 *404:I 0.00144941
97 *292:78 *404:I 9.96624e-06
98 *296:10 *298:76 1.16291e-05
99 *296:34 *298:65 0
*RES
1 *1548:Z *298:4 4.5 
2 *298:4 *298:14 36.81 
3 *298:14 *298:26 19.3342 
4 *298:26 *1446:RN 9.45 
5 *298:26 *404:I 32.31 
6 *298:14 *1447:RN 13.5 
7 *298:4 *298:65 4.14 
8 *298:65 *446:I 4.5 
9 *298:65 *298:76 8.28 
10 *298:76 *298:86 25.4904 
11 *298:86 *406:I 46.3404 
12 *298:86 *444:I 17.3796 
13 *298:76 *1547:I 9 
*END

*D_NET *299 0.00417219
*CONN
*I *1449:RN I *D gf180mcu_fd_sc_mcu7t5v0__dffrnq_1
*I *1450:RN I *D gf180mcu_fd_sc_mcu7t5v0__dffrnq_1
*I *1451:RN I *D gf180mcu_fd_sc_mcu7t5v0__dffrnq_1
*I *1524:Z O *D gf180mcu_fd_sc_mcu7t5v0__dlyb_1
*CAP
1 *1449:RN 0.000391436
2 *1450:RN 7.30695e-05
3 *1451:RN 7.30695e-05
4 *1524:Z 0.000325578
5 *299:17 0.000710691
6 *299:8 0.000644833
7 *391:I *1449:RN 2.44411e-05
8 *1361:A1 *1449:RN 5.75634e-06
9 *1363:B *299:8 0.000140554
10 *1363:B *299:17 2.76267e-05
11 *1426:D *1449:RN 4.6613e-06
12 *1454:CLK *299:8 0.00033434
13 *1478:I *1449:RN 5.98761e-07
14 *1478:I *299:17 1.42256e-05
15 *1493:I *299:17 2.03496e-05
16 *1503:I *299:8 3.46985e-05
17 *1503:I *299:17 5.08346e-05
18 *245:31 *1449:RN 5.78854e-06
19 *246:14 *1449:RN 0.000535988
20 *246:14 *299:17 0.000744968
21 *272:31 *1449:RN 8.68281e-06
*RES
1 *1524:Z *299:8 7.2 
2 *299:8 *1451:RN 4.95 
3 *299:8 *299:17 2.61 
4 *299:17 *1450:RN 4.95 
5 *299:17 *1449:RN 7.11 
*END

*D_NET *300 0.00436831
*CONN
*I *1550:I I *D gf180mcu_fd_sc_mcu7t5v0__clkbuf_1
*I *1430:SETN I *D gf180mcu_fd_sc_mcu7t5v0__dffsnq_1
*I *1525:Z O *D gf180mcu_fd_sc_mcu7t5v0__dlyb_1
*CAP
1 *1550:I 0.000380902
2 *1430:SETN 0.0003728
3 *1525:Z 0
4 *300:4 0.000753702
5 *1430:SETN *302:10 0.000118746
6 *1430:SETN *312:29 0.000184544
7 *1550:I *302:10 0.000392441
8 *1337:A2 *1430:SETN 7.97427e-05
9 *1366:A2 *1430:SETN 0.000267635
10 *1521:I *1550:I 0.000163342
11 *96:12 *1550:I 0.000766753
12 *97:14 *1430:SETN 0.000148346
13 *108:43 *1430:SETN 0.000100647
14 *123:45 *1550:I 0.000620062
15 *290:188 *1430:SETN 9.3226e-06
16 *290:188 *1550:I 9.3226e-06
*RES
1 *1525:Z *300:4 4.5 
2 *300:4 *1430:SETN 17.1 
3 *300:4 *1550:I 9.81 
*END

*D_NET *301 0.00553112
*CONN
*I *1428:RN I *D gf180mcu_fd_sc_mcu7t5v0__dffrnq_1
*I *1427:SETN I *D gf180mcu_fd_sc_mcu7t5v0__dffsnq_1
*I *1549:Z O *D gf180mcu_fd_sc_mcu7t5v0__clkbuf_1
*CAP
1 *1428:RN 6.68118e-05
2 *1427:SETN 0.000168561
3 *1549:Z 0.00077357
4 *301:10 0.00100894
5 *1264:I *301:10 0.000306836
6 *1357:A2 *301:10 0.000108255
7 *1360:A2 *301:10 9.7659e-06
8 *1360:B *301:10 8.98047e-05
9 *1374:B1 *301:10 6.34976e-05
10 *1501:I *301:10 0.000438928
11 *94:37 *1427:SETN 2.76074e-05
12 *94:37 *1428:RN 6.55391e-06
13 *109:24 *301:10 0.00127219
14 *240:23 *1427:SETN 0.00061362
15 *240:23 *1428:RN 0.000210765
16 *244:39 *301:10 0.000365407
*RES
1 *1549:Z *301:10 21.33 
2 *301:10 *1427:SETN 6.21 
3 *301:10 *1428:RN 5.13 
*END

*D_NET *302 0.0144979
*CONN
*I *1429:RN I *D gf180mcu_fd_sc_mcu7t5v0__dffrnq_2
*I *1523:I I *D gf180mcu_fd_sc_mcu7t5v0__dlyb_1
*I *1549:I I *D gf180mcu_fd_sc_mcu7t5v0__clkbuf_1
*I *1524:I I *D gf180mcu_fd_sc_mcu7t5v0__dlyb_1
*I *1550:Z O *D gf180mcu_fd_sc_mcu7t5v0__clkbuf_1
*CAP
1 *1429:RN 0.000203848
2 *1523:I 0
3 *1549:I 0.000295214
4 *1524:I 0
5 *1550:Z 0.000754803
6 *302:27 0.000987031
7 *302:18 0.00134749
8 *302:10 0.00161432
9 *302:10 *312:29 5.79792e-06
10 *302:10 *343:12 0.000670919
11 *1292:A2 *302:10 9.3226e-06
12 *1311:A1 *302:27 0.000297517
13 *1311:A2 *302:27 0
14 *1360:A2 *1549:I 0.000193622
15 *1361:A2 *1549:I 5.41381e-05
16 *1366:A2 *302:10 0.000469222
17 *1366:A2 *302:18 0.000110684
18 *1373:A1 *1549:I 0.000561388
19 *1373:A1 *302:27 0.000248193
20 *1373:B *1549:I 2.36813e-05
21 *1374:B1 *1549:I 2.60586e-05
22 *1397:A1 *302:18 0.000766235
23 *1404:A2 *302:18 0.000315952
24 *1430:D *302:10 1.42732e-05
25 *1430:SETN *302:10 0.000118746
26 *1470:I *1549:I 5.04431e-05
27 *1470:I *302:27 1.17652e-05
28 *1501:I *1549:I 9.3226e-06
29 *1509:I *1429:RN 0.000256433
30 *1509:I *302:10 9.39061e-05
31 *1509:I *302:18 0.000679485
32 *1550:I *302:10 0.000392441
33 *97:14 *302:10 0.00014046
34 *97:14 *302:18 0.00171043
35 *108:14 *302:27 0.000138576
36 *110:14 *302:27 6.86807e-05
37 *123:45 *302:10 0.000486059
38 *206:14 *302:27 2.8764e-06
39 *244:39 *1549:I 0.000846896
40 *289:99 *302:27 0.000133096
41 *290:151 *302:27 0
42 *292:47 *302:27 0.000276549
43 *293:12 *302:10 0.000111983
*RES
1 *1550:Z *302:10 16.74 
2 *302:10 *302:18 12.15 
3 *302:18 *1524:I 4.5 
4 *302:18 *302:27 5.4 
5 *302:27 *1549:I 17.46 
6 *302:27 *1523:I 4.5 
7 *302:10 *1429:RN 10.62 
*END

*D_NET *303 0.00249356
*CONN
*I *1552:I I *D gf180mcu_fd_sc_mcu7t5v0__clkbuf_1
*I *1457:SETN I *D gf180mcu_fd_sc_mcu7t5v0__dffsnq_1
*I *1526:Z O *D gf180mcu_fd_sc_mcu7t5v0__dlyb_1
*CAP
1 *1552:I 9.13239e-05
2 *1457:SETN 0.000300786
3 *1526:Z 0
4 *303:6 0.00039211
5 *1457:SETN *1460:RN 0
6 *1457:SETN *1526:I 0.000300603
7 *1552:I *1526:I 0.000518815
8 *1252:I *1457:SETN 0.000289888
9 *1252:I *1552:I 0.000555256
10 *1383:A2 *1552:I 8.68281e-06
11 *1597:I *1457:SETN 0
12 *1597:I *1552:I 1.39839e-05
13 *121:24 *1457:SETN 2.21159e-05
*RES
1 *1526:Z *303:6 9 
2 *303:6 *1457:SETN 11.34 
3 *303:6 *1552:I 10.8 
*END

*D_NET *304 0.00643032
*CONN
*I *1453:RN I *D gf180mcu_fd_sc_mcu7t5v0__dffrnq_1
*I *1452:RN I *D gf180mcu_fd_sc_mcu7t5v0__dffrnq_1
*I *1454:RN I *D gf180mcu_fd_sc_mcu7t5v0__dffrnq_1
*I *1551:Z O *D gf180mcu_fd_sc_mcu7t5v0__buf_1
*CAP
1 *1453:RN 0
2 *1452:RN 0
3 *1454:RN 0.000100096
4 *1551:Z 0.000689711
5 *304:14 0.000236397
6 *304:12 0.000826012
7 *1454:RN *308:20 0.00026296
8 *304:12 *342:30 4.58958e-05
9 *1269:I *1454:RN 0.000430936
10 *1269:I *304:12 0.000223398
11 *1269:I *304:14 0.000962379
12 *1287:A1 *304:12 2.13877e-05
13 *1345:A1 *304:12 7.95083e-05
14 *1372:A2 *304:12 0.00118451
15 *1548:I *304:12 4.24123e-05
16 *1564:I *1454:RN 4.84743e-05
17 *1564:I *304:12 4.61945e-05
18 *1564:I *304:14 0.000182994
19 *1571:I *304:12 0
20 *1598:I *1454:RN 9.85467e-05
21 *1598:I *304:14 7.66748e-05
22 *120:12 *1454:RN 0.000609594
23 *280:48 *304:12 7.39934e-06
24 *280:72 *304:12 0.000254843
*RES
1 *1551:Z *304:12 19.62 
2 *304:12 *304:14 2.61 
3 *304:14 *1454:RN 25.2 
4 *304:14 *1452:RN 4.5 
5 *304:12 *1453:RN 4.5 
*END

*D_NET *305 0.0104208
*CONN
*I *1461:RN I *D gf180mcu_fd_sc_mcu7t5v0__dffrnq_1
*I *1455:RN I *D gf180mcu_fd_sc_mcu7t5v0__dffrnq_1
*I *1551:I I *D gf180mcu_fd_sc_mcu7t5v0__buf_1
*I *1552:Z O *D gf180mcu_fd_sc_mcu7t5v0__clkbuf_1
*CAP
1 *1461:RN 0.000591345
2 *1455:RN 0
3 *1551:I 8.44549e-05
4 *1552:Z 0.000607281
5 *305:12 0.000565896
6 *305:8 0.00168007
7 *305:12 *1288:B 0
8 *305:12 *1465:D 2.491e-05
9 *448:I *305:8 0
10 *1256:I *1551:I 0.000604688
11 *1256:I *305:12 0.000133678
12 *1280:A1 *1461:RN 7.90816e-05
13 *1372:A2 *1551:I 0.000307432
14 *1381:A1 *1461:RN 2.23677e-05
15 *1383:A1 *305:8 8.5822e-05
16 *1383:A1 *305:12 4.68565e-05
17 *1383:A2 *305:8 3.11128e-05
18 *1384:B *305:8 0.000213868
19 *1460:D *305:8 0.000930097
20 *1461:D *305:12 0.00084652
21 *1464:CLK *305:8 0.00123001
22 *1464:CLK *305:12 4.21599e-05
23 *1548:I *1551:I 0.00012512
24 *1571:I *1461:RN 0.000642779
25 *1571:I *305:8 0
26 *1597:I *305:8 8.86034e-05
27 *104:12 *305:12 2.09032e-05
28 *121:24 *305:8 0
29 *223:12 *305:12 4.45215e-05
30 *223:36 *1551:I 0.000612142
31 *223:36 *305:12 0.000759107
*RES
1 *1552:Z *305:8 10.98 
2 *305:8 *305:12 5.4 
3 *305:12 *1551:I 16.02 
4 *305:12 *1455:RN 4.5 
5 *305:8 *1461:RN 17.19 
*END

*D_NET *306 0.00580219
*CONN
*I *1553:I I *D gf180mcu_fd_sc_mcu7t5v0__clkbuf_1
*I *1464:RN I *D gf180mcu_fd_sc_mcu7t5v0__dffrnq_1
*I *1465:RN I *D gf180mcu_fd_sc_mcu7t5v0__dffrnq_1
*I *1527:Z O *D gf180mcu_fd_sc_mcu7t5v0__dlyb_1
*CAP
1 *1553:I 0.000673399
2 *1464:RN 4.5431e-05
3 *1465:RN 0.00098314
4 *1527:Z 6.76298e-05
5 *306:8 0.00124637
6 *306:6 0.000958826
7 *1465:RN *1293:A2 0
8 *1553:I *1528:I 1.35491e-05
9 *1553:I *1554:I 0
10 *1553:I *307:18 0.000106536
11 *1281:A1 *1465:RN 1.47439e-05
12 *1299:A2 *1465:RN 2.22166e-05
13 *1382:A1 *1465:RN 3.68017e-05
14 *1382:A1 *1553:I 0
15 *1462:D *1464:RN 0.000412393
16 *1462:D *1465:RN 0
17 *1462:D *1553:I 6.51619e-05
18 *1462:D *306:8 3.35573e-05
19 *1464:D *1464:RN 0.000402115
20 *1471:I *1465:RN 6.28596e-05
21 *1484:I *1465:RN 3.70055e-05
22 *1542:I *1465:RN 7.37195e-06
23 *100:31 *1465:RN 2.91887e-05
24 *100:54 *1465:RN 0.000160181
25 *100:54 *1553:I 0
26 *100:54 *306:8 9.34436e-06
27 *111:28 *1553:I 7.34738e-05
28 *116:20 *1465:RN 9.36603e-05
29 *116:20 *306:8 4.32041e-05
30 *124:16 *1465:RN 0.000154163
31 *126:14 *1465:RN 2.78564e-05
32 *288:20 *1465:RN 1.05883e-05
33 *288:76 *1465:RN 1.14307e-05
*RES
1 *1527:Z *306:6 4.95 
2 *306:6 *306:8 1.35 
3 *306:8 *1465:RN 11.34 
4 *306:8 *1464:RN 14.67 
5 *306:6 *1553:I 8.91 
*END

*D_NET *307 0.00819768
*CONN
*I *1458:RN I *D gf180mcu_fd_sc_mcu7t5v0__dffrnq_1
*I *1460:RN I *D gf180mcu_fd_sc_mcu7t5v0__dffrnq_1
*I *1553:Z O *D gf180mcu_fd_sc_mcu7t5v0__clkbuf_1
*CAP
1 *1458:RN 0.00016877
2 *1460:RN 0.000659217
3 *1553:Z 0.00123437
4 *307:18 0.00206235
5 *1460:RN *1526:I 1.68737e-05
6 cmp_clk *307:18 0
7 cmp_rst *307:18 0.00104302
8 dac_n[9] *1458:RN 0.000288071
9 dac_n[9] *1460:RN 5.05815e-05
10 dac_n[9] *307:18 1.0415e-05
11 *1381:A1 *1460:RN 0.000140583
12 *1382:A1 *307:18 7.96333e-06
13 *1382:A2 *1460:RN 0.000683398
14 *1382:A2 *307:18 0
15 *1457:D *1458:RN 0.00020098
16 *1457:D *1460:RN 0.000604092
17 *1457:SETN *1460:RN 0
18 *1553:I *307:18 0.000106536
19 *1569:I *307:18 0.000220208
20 *1570:I *1460:RN 0.000393153
21 *4:30 *1458:RN 1.80559e-05
22 *4:30 *307:18 1.18255e-05
23 *100:16 *1460:RN 1.70328e-05
24 *296:34 *1460:RN 0.00026018
*RES
1 *1553:Z *307:18 26.82 
2 *307:18 *1460:RN 16.38 
3 *307:18 *1458:RN 10.44 
*END

*D_NET *308 0.0173981
*CONN
*I *1599:I I *D gf180mcu_fd_sc_mcu7t5v0__buf_2
*I *1261:ZN O *D gf180mcu_fd_sc_mcu7t5v0__clkinv_1
*CAP
1 *1599:I 0
2 *1261:ZN 0.00559379
3 *308:20 0.00559379
4 *1357:B *308:20 0.00029509
5 *1374:A1 *308:20 5.78796e-05
6 *1398:I1 *308:20 0.000254487
7 *1400:A1 *308:20 7.4601e-06
8 *1427:D *308:20 0.000406367
9 *1428:D *308:20 0.000387412
10 *1454:RN *308:20 0.00026296
11 *47:22 *308:20 0.000165327
12 *109:24 *308:20 6.23518e-05
13 *120:12 *308:20 0.000265631
14 *177:24 *308:20 0.00167382
15 *239:12 *308:20 2.18192e-06
16 *239:41 *308:20 0.000177977
17 *243:21 *308:20 6.87714e-05
18 *248:16 *308:20 0.000884217
19 *276:46 *308:20 1.25324e-05
20 *292:16 *308:20 0.000203416
21 *292:41 *308:20 0.00102264
*RES
1 *1261:ZN *308:20 48.7282 
2 *308:20 *1599:I 13.5 
*END

*D_NET *309 0.0104013
*CONN
*I *1554:I I *D gf180mcu_fd_sc_mcu7t5v0__clkbuf_1
*I *1527:I I *D gf180mcu_fd_sc_mcu7t5v0__dlyb_1
*I *1526:I I *D gf180mcu_fd_sc_mcu7t5v0__dlyb_1
*I *1528:Z O *D gf180mcu_fd_sc_mcu7t5v0__dlyb_1
*CAP
1 *1554:I 0.000516594
2 *1527:I 7.41444e-05
3 *1526:I 0.000532696
4 *1528:Z 0
5 *309:23 0.000839074
6 *309:6 0.000781032
7 *1527:I *1601:I 5.90688e-05
8 *1527:I *311:6 1.26077e-05
9 *1554:I *310:16 9.76136e-06
10 *309:23 *1528:I 3.07257e-05
11 *1252:I *1526:I 0.000480209
12 *1252:I *309:23 0.000967804
13 *1275:A1 *1527:I 0.000168683
14 *1275:A1 *1554:I 0.000467278
15 *1275:A2 *1527:I 0.000285859
16 *1275:A2 *1554:I 0.000376832
17 *1276:A1 *1554:I 0.00103583
18 *1299:A2 *1527:I 9.6749e-05
19 *1381:A2 *1526:I 8.14155e-05
20 *1457:SETN *1526:I 0.000300603
21 *1460:RN *1526:I 1.68737e-05
22 *1552:I *1526:I 0.000518815
23 *1553:I *1554:I 0
24 *98:12 *1554:I 0.000139014
25 *100:54 *1527:I 0.000214612
26 *111:8 *1554:I 0.00126953
27 *111:12 *1554:I 0.000643588
28 *111:28 *1526:I 2.99782e-05
29 *111:28 *309:23 0.000252413
30 *120:81 *1554:I 0.000124081
31 *121:24 *1526:I 7.54295e-05
*RES
1 *1528:Z *309:6 9 
2 *309:6 *1526:I 14.67 
3 *309:6 *309:23 7.29 
4 *309:23 *1527:I 5.85 
5 *309:23 *1554:I 21.06 
*END

*D_NET *310 0.00929319
*CONN
*I *1466:RN I *D gf180mcu_fd_sc_mcu7t5v0__dffrnq_1
*I *1462:RN I *D gf180mcu_fd_sc_mcu7t5v0__dffrnq_1
*I *1554:Z O *D gf180mcu_fd_sc_mcu7t5v0__clkbuf_1
*CAP
1 *1466:RN 0.000327371
2 *1462:RN 0.000480394
3 *1554:Z 0.0015725
4 *310:16 0.00238027
5 *350:I *1466:RN 0.00107023
6 *377:I *310:16 1.44234e-05
7 *381:I *310:16 9.20679e-05
8 *415:I *310:16 6.5543e-05
9 *1279:A1 *310:16 9.76589e-05
10 *1298:A3 *310:16 0.000341445
11 *1301:A2 *310:16 0.00021875
12 *1346:A1 *310:16 8.49208e-05
13 *1346:A2 *310:16 0.000100393
14 *1349:A1 *1462:RN 5.71961e-05
15 *1349:A1 *310:16 4.26496e-05
16 *1369:A2 *1462:RN 0
17 *1415:A2 *310:16 0.000205529
18 *1431:D *310:16 0.000280904
19 *1431:CLK *310:16 5.47398e-05
20 *1432:D *310:16 0.000293885
21 *1466:D *1462:RN 2.26729e-05
22 *1466:D *310:16 6.07736e-05
23 *1554:I *310:16 9.76136e-06
24 *121:24 *310:16 5.33353e-05
25 *123:45 *1462:RN 5.39772e-05
26 *168:10 *310:16 4.51807e-06
27 *198:26 *1462:RN 0.000234202
28 *248:65 *1462:RN 0.000699172
29 *248:65 *1466:RN 5.40003e-05
30 *271:8 *310:16 7.76898e-05
31 *272:117 *310:16 0.000183585
32 *272:125 *310:16 5.86328e-05
*RES
1 *1554:Z *310:16 16.74 
2 *310:16 *1462:RN 17.37 
3 *310:16 *1466:RN 16.47 
*END

*D_NET *311 0.0115676
*CONN
*I *1528:I I *D gf180mcu_fd_sc_mcu7t5v0__dlyb_1
*I *1601:I I *D gf180mcu_fd_sc_mcu7t5v0__buf_1
*I *1529:Z O *D gf180mcu_fd_sc_mcu7t5v0__dlyb_1
*CAP
1 *1528:I 0.000143392
2 *1601:I 0.00122693
3 *1529:Z 2.80503e-05
4 *311:6 0.00139838
5 *1601:I *1375:A1 0.000473889
6 *1601:I *1516:I 3.61578e-05
7 *1601:I *344:27 5.27337e-05
8 *380:I *1601:I 1.14649e-05
9 *1252:I *1528:I 4.36786e-06
10 *1273:A1 *1601:I 2.76589e-05
11 *1275:A1 *1528:I 9.63355e-05
12 *1275:A1 *311:6 0.000169524
13 *1275:A2 *1528:I 9.3226e-06
14 *1278:A1 *1601:I 0.000676866
15 *1283:A1 *1601:I 8.76338e-05
16 *1296:A3 *1601:I 5.8927e-05
17 *1299:A2 *1601:I 0.000402615
18 *1375:A2 *1601:I 0.000953324
19 *1375:A3 *1601:I 3.12451e-05
20 *1377:A2 *1601:I 0.000790492
21 *1407:C *1601:I 0
22 *1415:A1 *1601:I 0.000600783
23 *1460:CLK *1601:I 9.82427e-05
24 *1466:CLK *1601:I 0.00145131
25 *1527:I *1601:I 5.90688e-05
26 *1527:I *311:6 1.26077e-05
27 *1553:I *1528:I 1.35491e-05
28 *4:30 *1601:I 0.000197237
29 *4:30 *311:6 9.28737e-05
30 *44:10 *1601:I 8.05111e-06
31 *100:58 *1528:I 0.000216002
32 *111:28 *1528:I 0.00012135
33 *121:24 *1528:I 3.04435e-05
34 *170:26 *1601:I 8.68281e-06
35 *208:397 *1601:I 0.000273255
36 *231:16 *1601:I 0.000404148
37 *239:47 *1601:I 0.00110196
38 *296:116 *1601:I 0.00016804
39 *309:23 *1528:I 3.07257e-05
*RES
1 *1529:Z *311:6 5.13 
2 *311:6 *1601:I 39.87 
3 *311:6 *1528:I 14.94 
*END

*D_NET *312 0.0195326
*CONN
*I *1459:SETN I *D gf180mcu_fd_sc_mcu7t5v0__dffsnq_1
*I *1467:RN I *D gf180mcu_fd_sc_mcu7t5v0__dffrnq_1
*I *1525:I I *D gf180mcu_fd_sc_mcu7t5v0__dlyb_1
*I *1601:Z O *D gf180mcu_fd_sc_mcu7t5v0__buf_1
*CAP
1 *1459:SETN 0.000447721
2 *1467:RN 0.000364611
3 *1525:I 8.92098e-05
4 *1601:Z 0.00154905
5 *312:29 0.00253814
6 *312:14 0.00336407
7 *1467:RN *1308:B 2.77246e-05
8 *1467:RN *1350:C 3.12451e-05
9 *1467:RN *328:16 2.1573e-06
10 *312:14 *1331:A1 1.06822e-05
11 *312:14 *1514:I 3.56699e-05
12 *1305:A2 *312:14 4.86292e-05
13 *1337:A1 *312:14 4.6613e-06
14 *1337:A2 *312:14 1.5931e-05
15 *1349:A1 *312:29 0.000250003
16 *1350:B *1467:RN 2.59527e-05
17 *1350:B *312:29 5.23195e-05
18 *1371:A1 *312:14 0.00087116
19 *1375:A3 *312:14 0.000184753
20 *1399:A2 *312:29 0.000267638
21 *1400:A3 *312:29 0
22 *1427:D *1459:SETN 0.000216299
23 *1430:SETN *312:29 0.000184544
24 *1430:CLK *1525:I 5.06377e-06
25 *1436:D *1459:SETN 2.36954e-05
26 *1445:D *1459:SETN 0.000212665
27 *1446:RN *312:29 2.30653e-05
28 *1477:I *312:29 0.000199734
29 *1494:I *1467:RN 0
30 *1502:I *312:14 4.4441e-06
31 *1519:I *312:29 0.000249696
32 *1537:I *1459:SETN 0.00165406
33 *1562:I *312:14 0.000121968
34 *108:27 *1525:I 0.000856325
35 *108:27 *312:14 0.00055694
36 *108:43 *312:14 2.32482e-05
37 *159:41 *312:14 0
38 *159:43 *312:14 2.14748e-05
39 *170:26 *312:14 6.8618e-06
40 *172:22 *1525:I 0.000856325
41 *172:22 *312:14 0.00104833
42 *208:85 *312:29 0.000182278
43 *208:87 *312:29 3.81771e-05
44 *208:123 *312:29 0
45 *229:72 *312:14 0.000546446
46 *229:83 *312:14 3.12451e-05
47 *240:12 *312:29 0.000150179
48 *241:62 *1459:SETN 0.000578407
49 *274:66 *312:14 3.73774e-06
50 *274:81 *312:14 8.68281e-06
51 *276:8 *312:14 2.1573e-06
52 *290:188 *312:29 0.00137983
53 *291:18 *312:29 0.000159589
54 *291:79 *312:29 0
55 *302:10 *312:29 5.79792e-06
*RES
1 *1601:Z *312:14 22.14 
2 *312:14 *1525:I 11.52 
3 *312:14 *312:29 18.81 
4 *312:29 *1467:RN 6.39 
5 *312:29 *1459:SETN 19.62 
*END

*D_NET *313 0.00480315
*CONN
*I *1420:RN I *D gf180mcu_fd_sc_mcu7t5v0__dffrnq_1
*I *1556:I I *D gf180mcu_fd_sc_mcu7t5v0__clkbuf_1
*I *1530:Z O *D gf180mcu_fd_sc_mcu7t5v0__dlyb_1
*CAP
1 *1420:RN 0.000604437
2 *1556:I 0.000523273
3 *1530:Z 0
4 *313:4 0.00112771
5 *1420:RN *1419:RN 0.000136037
6 dout[4] *1420:RN 5.73826e-05
7 *366:I *1420:RN 0
8 *366:I *1556:I 0.00010513
9 *396:I *1420:RN 0.000332674
10 *396:I *1556:I 0.000938836
11 *1389:I0 *1420:RN 0.000101616
12 *252:10 *1556:I 0.000294431
13 *254:12 *1420:RN 7.01335e-05
14 *254:12 *1556:I 5.87467e-05
15 *255:10 *1420:RN 1.80086e-05
16 *289:53 *1556:I 0.000434733
*RES
1 *1530:Z *313:4 4.5 
2 *313:4 *1556:I 10.53 
3 *313:4 *1420:RN 9.81 
*END

*D_NET *314 0.00868518
*CONN
*I *1416:RN I *D gf180mcu_fd_sc_mcu7t5v0__dffrnq_1
*I *1417:RN I *D gf180mcu_fd_sc_mcu7t5v0__dffrnq_1
*I *1435:RN I *D gf180mcu_fd_sc_mcu7t5v0__dffrnq_1
*I *1555:Z O *D gf180mcu_fd_sc_mcu7t5v0__clkbuf_2
*CAP
1 *1416:RN 5.74829e-05
2 *1417:RN 0
3 *1435:RN 0.000433412
4 *1555:Z 0.000105362
5 *314:16 0.000941962
6 *314:6 0.000671395
7 *1435:RN *1313:A1 0.00073156
8 *1435:RN *1313:B 0.000355376
9 *1435:RN *1385:I1 0.000432155
10 *1435:RN *328:60 0.000232503
11 *1435:RN *330:30 0.000216636
12 *314:16 *1314:A1 0.000121494
13 *314:16 *1385:I1 0.000244013
14 dout[1] *314:6 2.98728e-05
15 dout[1] *314:16 1.17725e-05
16 *405:I *314:16 0
17 *1385:I0 *314:6 0
18 *1386:I0 *314:16 0.000503463
19 *1581:I *314:6 0
20 *1582:I *314:16 0.000213559
21 *143:14 *1435:RN 0.000499457
22 *191:20 *314:16 1.35803e-05
23 *269:65 *314:16 7.73347e-05
24 *285:51 *1435:RN 0.00217405
25 *285:51 *314:6 0.00047198
26 *285:51 *314:16 0.000146755
*RES
1 *1555:Z *314:6 5.85 
2 *314:6 *314:16 13.77 
3 *314:16 *1435:RN 21.96 
4 *314:16 *1417:RN 4.5 
5 *314:6 *1416:RN 4.95 
*END

*D_NET *315 0.00415809
*CONN
*I *1419:RN I *D gf180mcu_fd_sc_mcu7t5v0__dffrnq_1
*I *1418:RN I *D gf180mcu_fd_sc_mcu7t5v0__dffrnq_1
*I *1555:I I *D gf180mcu_fd_sc_mcu7t5v0__clkbuf_2
*I *1556:Z O *D gf180mcu_fd_sc_mcu7t5v0__clkbuf_1
*CAP
1 *1419:RN 0.000400703
2 *1418:RN 0
3 *1555:I 0.000259826
4 *1556:Z 0
5 *315:19 0.000640854
6 *315:4 0.000499977
7 dout[2] *1419:RN 9.84908e-05
8 dout[2] *1555:I 4.62934e-05
9 dout[2] *315:19 0.000132938
10 dout[3] *1419:RN 0.000726734
11 *396:I *1419:RN 0.000266408
12 *396:I *315:19 0.000397953
13 *1389:I0 *1419:RN 1.92032e-05
14 *1420:RN *1419:RN 0.000136037
15 *285:51 *1555:I 0
16 *289:53 *1555:I 3.55404e-05
17 *289:53 *315:19 0.000497138
*RES
1 *1556:Z *315:4 4.5 
2 *315:4 *1555:I 6.39 
3 *315:4 *315:19 3.06 
4 *315:19 *1418:RN 4.5 
5 *315:19 *1419:RN 9.63 
*END

*D_NET *316 0.00572473
*CONN
*I *1557:I I *D gf180mcu_fd_sc_mcu7t5v0__buf_1
*I *1441:RN I *D gf180mcu_fd_sc_mcu7t5v0__dffrnq_1
*I *1531:Z O *D gf180mcu_fd_sc_mcu7t5v0__dlyb_1
*CAP
1 *1557:I 0.000607783
2 *1441:RN 0.000266087
3 *1531:Z 0
4 *316:6 0.000873871
5 *1441:RN *1323:A1 1.2801e-05
6 *1441:RN *1531:I 0.00048604
7 *1557:I *1440:RN 7.07604e-05
8 *1557:I *1559:I 0.00135824
9 dout[4] *1557:I 6.67054e-06
10 *406:I *1441:RN 0.000142437
11 *406:I *1557:I 0.00047599
12 *450:I *1557:I 0.00120091
13 *1390:S *1557:I 2.92773e-05
14 *1441:D *1441:RN 3.81002e-05
15 *1441:D *1557:I 5.72722e-05
16 *256:10 *1557:I 0
17 *285:27 *1557:I 9.84908e-05
*RES
1 *1531:Z *316:6 9 
2 *316:6 *1441:RN 11.34 
3 *316:6 *1557:I 16.92 
*END

*D_NET *317 0.00454724
*CONN
*I *1439:RN I *D gf180mcu_fd_sc_mcu7t5v0__dffrnq_1
*I *1438:RN I *D gf180mcu_fd_sc_mcu7t5v0__dffrnq_1
*I *1440:RN I *D gf180mcu_fd_sc_mcu7t5v0__dffrnq_1
*I *1557:Z O *D gf180mcu_fd_sc_mcu7t5v0__buf_1
*CAP
1 *1439:RN 0
2 *1438:RN 0.000339326
3 *1440:RN 0.000771135
4 *1557:Z 0.00050124
5 *317:24 0.000609222
6 *1438:RN *334:24 4.2666e-05
7 *1440:RN *1559:I 0.000345067
8 *1440:RN *335:12 0
9 *317:24 *335:12 0
10 dout[4] *1440:RN 9.7773e-05
11 *355:I *1440:RN 5.94874e-05
12 *355:I *317:24 1.86887e-06
13 *406:I *1440:RN 0.000528742
14 *1419:D *1438:RN 2.03826e-05
15 *1420:D *1438:RN 5.90985e-05
16 *1420:D *317:24 3.99444e-05
17 *1557:I *1440:RN 7.07604e-05
18 *191:20 *1438:RN 0.000652241
19 *191:20 *1440:RN 3.99345e-05
20 *191:20 *317:24 0.000348906
21 *285:33 *1440:RN 1.94436e-05
*RES
1 *1557:Z *1440:RN 22.86 
2 *1440:RN *317:24 6.93 
3 *317:24 *1438:RN 16.74 
4 *317:24 *1439:RN 4.5 
*END

*D_NET *318 0.012737
*CONN
*I *1530:I I *D gf180mcu_fd_sc_mcu7t5v0__dlyb_1
*I *1558:I I *D gf180mcu_fd_sc_mcu7t5v0__buf_1
*I *1532:Z O *D gf180mcu_fd_sc_mcu7t5v0__dlyb_1
*CAP
1 *1530:I 0.0010813
2 *1558:I 0.000285715
3 *1532:Z 0.000484903
4 *318:10 0.00185192
5 *1558:I *1334:A1 5.71925e-05
6 *1558:I *1531:I 0.000402558
7 *1558:I *322:16 0.000776048
8 *318:10 *1323:A1 1.08727e-05
9 *318:10 *1531:I 4.30287e-05
10 dout[3] *1530:I 0.00026477
11 dout[4] *1530:I 2.5111e-05
12 dout[5] *1530:I 9.29501e-05
13 *355:I *1558:I 3.83662e-05
14 *441:I *1530:I 0.000148388
15 *1389:I0 *1530:I 0.00105688
16 *1391:I0 *318:10 0.0004175
17 *1422:D *1530:I 2.36722e-05
18 *1422:D *1558:I 0.000267907
19 *1422:D *318:10 0.000202394
20 *1441:CLK *1558:I 0.00028336
21 *1473:I *1530:I 2.12898e-05
22 *1513:I *1530:I 0.000204502
23 *1586:I *1530:I 0.00012088
24 *232:16 *1530:I 0.00271529
25 *232:18 *1530:I 0.000579174
26 *274:155 *1530:I 0
27 *274:183 *1530:I 4.38503e-05
28 *283:8 *1530:I 0.000609281
29 *284:12 *1530:I 0.00014244
30 *284:12 *318:10 0.000238439
31 *285:51 *1530:I 0.000246993
*RES
1 *1532:Z *318:10 12.78 
2 *318:10 *1558:I 13.14 
3 *318:10 *1530:I 23.4 
*END

*D_NET *319 0.016095
*CONN
*I *1600:I I *D gf180mcu_fd_sc_mcu7t5v0__buf_2
*I *1262:ZN O *D gf180mcu_fd_sc_mcu7t5v0__clkinv_1
*CAP
1 *1600:I 0
2 *1262:ZN 0.00188666
3 *319:18 0.00188666
4 dac_n[2] *319:18 1.1256e-05
5 dac_p[6] *319:18 0.000111323
6 samp_bot *319:18 2.52908e-05
7 *1357:B *319:18 0
8 *1364:A1 *319:18 3.2553e-06
9 *1367:A1 *319:18 0.000105251
10 *47:22 *319:18 0.00754981
11 *236:14 *319:18 0.00451551
*RES
1 *1262:ZN *319:18 46.35 
2 *319:18 *1600:I 4.5 
*END

*D_NET *320 0.0174211
*CONN
*I *1436:RN I *D gf180mcu_fd_sc_mcu7t5v0__dffrnq_1
*I *1437:RN I *D gf180mcu_fd_sc_mcu7t5v0__dffrnq_1
*I *1531:I I *D gf180mcu_fd_sc_mcu7t5v0__dlyb_1
*I *1558:Z O *D gf180mcu_fd_sc_mcu7t5v0__buf_1
*CAP
1 *1436:RN 0.000796245
2 *1437:RN 0.00198856
3 *1531:I 0.00239519
4 *1558:Z 0.00120287
5 *1436:RN *328:43 8.21881e-05
6 *1437:RN *1322:B 4.38529e-05
7 *1437:RN *1330:B 4.67165e-05
8 *1437:RN *335:31 0.000220196
9 *1437:RN *335:49 0.00070165
10 *1437:RN *336:16 6.48614e-05
11 *1531:I *1323:A1 0
12 *1531:I *1334:A1 1.15806e-05
13 *1531:I *1391:I1 1.70035e-05
14 *1531:I *1532:I 2.71693e-05
15 *1531:I *322:16 0.000464955
16 *1531:I *336:16 2.10751e-05
17 *353:I *1436:RN 0
18 *406:I *1437:RN 3.01487e-05
19 *406:I *1531:I 0
20 *1306:A1 *1436:RN 0.000417707
21 *1318:A2 *1437:RN 0.000496101
22 *1320:A2 *1437:RN 0
23 *1322:A2 *1437:RN 3.73774e-06
24 *1335:A1 *1531:I 9.98558e-05
25 *1335:A2 *1531:I 5.91492e-05
26 *1335:B *1531:I 0.00119253
27 *1359:A1 *1437:RN 0.00067923
28 *1359:B *1437:RN 0.000281666
29 *1362:A2 *1437:RN 3.55625e-06
30 *1391:I0 *1531:I 0.000696172
31 *1391:S *1531:I 9.04462e-05
32 *1422:D *1531:I 8.47023e-06
33 *1437:D *1436:RN 2.62807e-05
34 *1438:D *1437:RN 7.1845e-05
35 *1438:CLK *1437:RN 0.000236727
36 *1440:CLK *1437:RN 0.000388432
37 *1441:RN *1531:I 0.00048604
38 *1468:I *1436:RN 0.000217328
39 *1481:I *1437:RN 0
40 *1482:I *1437:RN 1.17725e-05
41 *1558:I *1531:I 0.000402558
42 *1592:I *1436:RN 0.000229831
43 *132:14 *1437:RN 7.07499e-05
44 *132:16 *1437:RN 0.000218608
45 *144:25 *1437:RN 0.000242887
46 *208:131 *1437:RN 4.15093e-05
47 *208:251 *1531:I 0.000172919
48 *220:6 *1436:RN 9.71361e-05
49 *220:6 *1437:RN 0.000487494
50 *220:17 *1436:RN 1.50885e-05
51 *221:13 *1437:RN 0.000161842
52 *241:62 *1436:RN 0.00164318
53 *267:18 *1437:RN 0
54 *274:155 *1531:I 1.29339e-05
55 *318:10 *1531:I 4.30287e-05
*RES
1 *1558:Z *1531:I 29.7 
2 *1531:I *1437:RN 22.14 
3 *1437:RN *1436:RN 25.11 
*END

*D_NET *321 0.00443774
*CONN
*I *1560:I I *D gf180mcu_fd_sc_mcu7t5v0__clkbuf_1
*I *1423:RN I *D gf180mcu_fd_sc_mcu7t5v0__dffrnq_1
*I *1533:Z O *D gf180mcu_fd_sc_mcu7t5v0__dlyb_1
*CAP
1 *1560:I 0.00053347
2 *1423:RN 0.000321771
3 *1533:Z 0
4 *321:4 0.00085524
5 *1423:RN *323:16 0.000916481
6 *1423:RN *326:23 0.000176705
7 *1423:RN *326:27 0.000801152
8 *1560:I *1534:I 1.18076e-06
9 dout[7] *1423:RN 0.000106536
10 dout[7] *1560:I 9.84908e-05
11 *1393:I0 *1423:RN 5.81424e-06
12 *1393:I0 *1560:I 0.000103269
13 *1393:S *1560:I 0.000411094
14 *1424:D *1560:I 0
15 *1587:I *1423:RN 1.56374e-05
16 *1588:I *1423:RN 8.51055e-05
17 *1588:I *1560:I 5.79059e-06
*RES
1 *1533:Z *321:4 4.5 
2 *321:4 *1423:RN 18.09 
3 *321:4 *1560:I 17.46 
*END

*D_NET *322 0.0083281
*CONN
*I *1442:RN I *D gf180mcu_fd_sc_mcu7t5v0__dffrnq_1
*I *1443:RN I *D gf180mcu_fd_sc_mcu7t5v0__dffrnq_1
*I *1444:RN I *D gf180mcu_fd_sc_mcu7t5v0__dffrnq_1
*I *1559:Z O *D gf180mcu_fd_sc_mcu7t5v0__buf_2
*CAP
1 *1442:RN 0.00024653
2 *1443:RN 0
3 *1444:RN 0.000298188
4 *1559:Z 0.000602317
5 *322:18 0.000360208
6 *322:16 0.000910866
7 *1444:RN *1514:I 0.000727982
8 *1444:RN *338:28 0.000139503
9 *322:16 *1334:A1 1.33093e-05
10 *322:16 *1514:I 0.000173221
11 *322:16 *338:28 7.39934e-06
12 *322:18 *1514:I 0.000330177
13 *322:18 *338:28 8.17233e-05
14 *393:I *1442:RN 1.56779e-05
15 *1324:B *1442:RN 3.19991e-05
16 *1324:B *322:16 0.000726822
17 *1421:D *322:16 3.99807e-05
18 *1421:CLK *322:16 0.000157856
19 *1422:CLK *322:16 0.00058555
20 *1425:D *322:16 6.44606e-06
21 *1441:CLK *322:16 4.53942e-06
22 *1442:D *1444:RN 8.3758e-06
23 *1531:I *322:16 0.000464955
24 *1558:I *322:16 0.000776048
25 *146:34 *1444:RN 1.69292e-05
26 *191:20 *322:16 0.000413065
27 *212:13 *1442:RN 0.000343808
28 *212:13 *322:16 0.000214917
29 *212:28 *1442:RN 0.000589913
30 *241:111 *1442:RN 3.97987e-05
*RES
1 *1559:Z *322:16 17.01 
2 *322:16 *322:18 0.99 
3 *322:18 *1444:RN 11.7 
4 *322:18 *1443:RN 9 
5 *322:16 *1442:RN 11.61 
*END

*D_NET *323 0.01199
*CONN
*I *1422:RN I *D gf180mcu_fd_sc_mcu7t5v0__dffrnq_1
*I *1421:RN I *D gf180mcu_fd_sc_mcu7t5v0__dffrnq_1
*I *1559:I I *D gf180mcu_fd_sc_mcu7t5v0__buf_2
*I *1560:Z O *D gf180mcu_fd_sc_mcu7t5v0__clkbuf_1
*CAP
1 *1422:RN 0
2 *1421:RN 0
3 *1559:I 0.000361397
4 *1560:Z 0.00124399
5 *323:18 0.000571123
6 *323:16 0.00145372
7 *323:16 *1334:A1 2.37561e-05
8 *323:16 *1532:I 0.000487341
9 *323:16 *1533:I 3.01487e-05
10 *323:16 *326:27 0.000426842
11 *323:18 *1334:A1 1.26644e-05
12 dout[5] *1559:I 0.000595755
13 dout[5] *323:18 0.000243782
14 *406:I *1559:I 0.000535021
15 *440:I *323:16 0.000117099
16 *1393:I0 *323:16 4.95294e-05
17 *1394:I0 *323:16 6.27291e-05
18 *1423:RN *323:16 0.000916481
19 *1440:RN *1559:I 0.000345067
20 *1474:I *323:16 4.43027e-05
21 *1557:I *1559:I 0.00135824
22 *1587:I *323:16 0.00236371
23 *1590:I *323:16 0
24 *260:12 *323:16 8.4663e-05
25 *283:8 *323:18 0
26 *285:27 *1559:I 0.000147938
27 *285:27 *323:16 0.000126088
28 *285:27 *323:18 0.000388647
*RES
1 *1560:Z *323:16 27 
2 *323:16 *323:18 2.61 
3 *323:18 *1559:I 19.71 
4 *323:18 *1421:RN 4.5 
5 *323:16 *1422:RN 4.5 
*END

*D_NET *324 0.00908211
*CONN
*I *1463:RN I *D gf180mcu_fd_sc_mcu7t5v0__dffrnq_1
*I *1561:I I *D gf180mcu_fd_sc_mcu7t5v0__buf_1
*I *1434:RN I *D gf180mcu_fd_sc_mcu7t5v0__dffrnq_1
*I *1533:I I *D gf180mcu_fd_sc_mcu7t5v0__dlyb_1
*I *1534:Z O *D gf180mcu_fd_sc_mcu7t5v0__dlyb_1
*CAP
1 *1463:RN 0.000408458
2 *1561:I 5.6523e-05
3 *1434:RN 0.000691435
4 *1533:I 0.000172072
5 *1534:Z 0
6 *324:23 0.00109074
7 *324:4 0.000923309
8 *324:23 *1393:I1 0.000418857
9 *351:I *324:23 0.000117469
10 *382:I *324:23 0.00183259
11 *1277:A3 *1434:RN 0.000136903
12 *1277:A3 *1463:RN 0.000284896
13 *1393:I0 *1533:I 9.2838e-05
14 *1393:I0 *324:23 4.98049e-05
15 *1393:S *1533:I 0.000375633
16 *1393:S *324:23 0.000101608
17 *1415:A1 *1463:RN 0
18 *1589:I *1533:I 0
19 *113:6 *1463:RN 6.08092e-05
20 *170:55 *1434:RN 0.000729134
21 *170:55 *324:23 0.000210854
22 *228:10 *1434:RN 0.000346887
23 *241:119 *1434:RN 0.000137914
24 *241:119 *1561:I 0.000158383
25 *241:119 *324:23 0.000473836
26 *276:192 *1463:RN 0
27 *296:116 *1434:RN 0.000181007
28 *323:16 *1533:I 3.01487e-05
*RES
1 *1534:Z *324:4 4.5 
2 *324:4 *1533:I 6.57 
3 *324:4 *324:23 17.82 
4 *324:23 *1434:RN 17.01 
5 *324:23 *1561:I 4.95 
6 *1434:RN *1463:RN 12.42 
*END

*D_NET *325 0.00465073
*CONN
*I *1433:RN I *D gf180mcu_fd_sc_mcu7t5v0__dffrnq_1
*I *1431:RN I *D gf180mcu_fd_sc_mcu7t5v0__dffrnq_1
*I *1432:RN I *D gf180mcu_fd_sc_mcu7t5v0__dffrnq_1
*I *1561:Z O *D gf180mcu_fd_sc_mcu7t5v0__buf_1
*CAP
1 *1433:RN 0.000112291
2 *1431:RN 0
3 *1432:RN 0.00031826
4 *1561:Z 0.000161561
5 *325:12 0.000449942
6 *325:8 0.000405533
7 *382:I *325:8 0.000128732
8 *382:I *325:12 1.99414e-05
9 *1251:I *1433:RN 0.000210765
10 *1251:I *325:12 0.000690096
11 *1274:A1 *325:12 0.00013441
12 *1277:A3 *1433:RN 2.08301e-05
13 *1352:A1 *325:8 0.000117807
14 *1352:A1 *325:12 1.52092e-05
15 *1375:A3 *1432:RN 0.000128608
16 *1433:D *1432:RN 7.66375e-05
17 *1460:D *1432:RN 9.85004e-05
18 *1464:D *1432:RN 1.89082e-05
19 *170:26 *1432:RN 9.33389e-05
20 *272:97 *325:8 0.00024186
21 *272:97 *325:12 0.000491996
22 *272:109 *325:12 0.000715503
*RES
1 *1561:Z *325:8 10.71 
2 *325:8 *325:12 7.83 
3 *325:12 *1432:RN 6.93 
4 *325:12 *1431:RN 4.5 
5 *325:8 *1433:RN 9.81 
*END

*D_NET *326 0.0128079
*CONN
*I *1424:RN I *D gf180mcu_fd_sc_mcu7t5v0__dffrnq_1
*I *1425:RN I *D gf180mcu_fd_sc_mcu7t5v0__dffrnq_1
*I *1532:I I *D gf180mcu_fd_sc_mcu7t5v0__dlyb_1
*I *1534:I I *D gf180mcu_fd_sc_mcu7t5v0__dlyb_1
*I *1535:Z O *D gf180mcu_fd_sc_mcu7t5v0__dlyb_1
*CAP
1 *1424:RN 3.95682e-05
2 *1425:RN 0
3 *1532:I 0.0009538
4 *1534:I 8.76926e-05
5 *1535:Z 0.000472614
6 *326:27 0.00138608
7 *326:23 0.00065408
8 *326:10 0.000742537
9 *1532:I *1334:A1 3.73774e-06
10 *1532:I *1514:I 5.83624e-05
11 *1532:I *337:43 0.00090868
12 dout[7] *326:10 0
13 dout[7] *326:23 0.000570481
14 *350:I *326:27 2.08059e-05
15 *361:I *1532:I 0.00195605
16 *1324:B *1532:I 0.000155403
17 *1335:A1 *1532:I 5.49979e-05
18 *1335:A2 *1532:I 6.62654e-05
19 *1335:B *1532:I 0.000193822
20 *1391:I0 *1532:I 0.000448392
21 *1423:RN *326:23 0.000176705
22 *1423:RN *326:27 0.000801152
23 *1442:D *1532:I 0.000228146
24 *1512:I *1532:I 0.000158258
25 *1512:I *326:27 0.000651248
26 *1531:I *1532:I 2.71693e-05
27 *1560:I *1534:I 1.18076e-06
28 *1587:I *326:10 0.000462395
29 *1587:I *326:23 0.000256631
30 *1587:I *326:27 2.52103e-05
31 *1588:I *326:27 0
32 *146:34 *1532:I 0.000193613
33 *208:251 *1532:I 5.53565e-07
34 *285:21 *1532:I 0.000138056
35 *323:16 *1532:I 0.000487341
36 *323:16 *326:27 0.000426842
*RES
1 *1535:Z *326:10 12.96 
2 *326:10 *1534:I 9.45 
3 *326:10 *326:23 7.29 
4 *326:23 *326:27 5.4 
5 *326:27 *1532:I 26.01 
6 *326:27 *1425:RN 4.5 
7 *326:23 *1424:RN 4.77 
*END

*D_NET *327 0.0107822
*CONN
*I *1362:A1 I *D gf180mcu_fd_sc_mcu7t5v0__aoi211_2
*I *1330:A1 I *D gf180mcu_fd_sc_mcu7t5v0__aoi21_1
*I *1326:A1 I *D gf180mcu_fd_sc_mcu7t5v0__aoi21_1
*I *1365:B2 I *D gf180mcu_fd_sc_mcu7t5v0__aoi221_2
*I *1338:A1 I *D gf180mcu_fd_sc_mcu7t5v0__aoi21_1
*I *1342:A1 I *D gf180mcu_fd_sc_mcu7t5v0__aoi21_1
*I *1536:Z O *D gf180mcu_fd_sc_mcu7t5v0__dlyb_1
*CAP
1 *1362:A1 0
2 *1330:A1 3.08997e-05
3 *1326:A1 0.000145348
4 *1365:B2 0.000358666
5 *1338:A1 0.000124843
6 *1342:A1 0
7 *1536:Z 0.000215425
8 *327:55 0.000234915
9 *327:53 0.000659933
10 *327:36 0.00139243
11 *327:20 0.000704799
12 *327:8 0.00122788
13 *1326:A1 *335:49 0.000216897
14 *1330:A1 *335:49 1.23558e-05
15 *1338:A1 *338:28 0.000152008
16 *1365:B2 *1331:A1 0.000346693
17 *327:20 *338:28 1.34934e-05
18 *327:53 *1390:I1 0.00105389
19 *429:I *327:20 4.71134e-06
20 *441:I *327:53 0
21 *1328:A1 *327:53 7.65324e-05
22 *1328:A2 *1326:A1 0.000444513
23 *1330:A2 *1326:A1 5.51536e-05
24 *1330:A2 *327:55 2.69401e-05
25 *1332:A2 *1330:A1 0
26 *1332:A2 *327:53 0.000308573
27 *1332:A2 *327:55 0.000293601
28 *1332:B *327:8 0
29 *1338:A2 *1338:A1 5.73562e-05
30 *1342:A2 *327:20 4.3194e-05
31 *1343:A2 *1365:B2 0
32 *1343:A2 *327:53 0
33 *1344:A2 *327:20 1.00099e-05
34 *1362:A2 *1326:A1 8.50785e-05
35 *1362:A2 *327:55 6.18903e-05
36 *1365:A1 *1326:A1 0.000854754
37 *1368:A1 *327:20 0.000155452
38 *1368:A1 *327:36 2.23795e-05
39 *1368:A2 *327:36 1.22012e-05
40 *1369:A2 *327:20 1.84472e-05
41 *1371:B *1365:B2 0.000140033
42 *1374:B2 *327:20 0.000115729
43 *1421:D *327:53 4.95733e-05
44 *144:52 *327:8 1.80933e-05
45 *144:52 *327:36 8.12856e-06
46 *147:22 *327:36 2.68385e-05
47 *172:22 *1365:B2 0.000151807
48 *172:22 *327:53 0.000166204
49 *270:37 *327:53 0.00048874
50 *290:34 *327:53 8.41614e-05
51 *290:34 *327:55 0.000111653
*RES
1 *1536:Z *327:8 6.12 
2 *327:8 *327:20 4.32 
3 *327:20 *1342:A1 4.5 
4 *327:20 *1338:A1 5.67 
5 *327:8 *327:36 7.29 
6 *327:36 *1365:B2 11.88 
7 *327:36 *327:53 10.44 
8 *327:53 *327:55 1.17 
9 *327:55 *1326:A1 7.83 
10 *327:55 *1330:A1 4.77 
11 *327:53 *1362:A1 4.5 
*END

*D_NET *328 0.015641
*CONN
*I *1317:A1 I *D gf180mcu_fd_sc_mcu7t5v0__and2_1
*I *1302:A1 I *D gf180mcu_fd_sc_mcu7t5v0__and2_1
*I *1313:A1 I *D gf180mcu_fd_sc_mcu7t5v0__aoi21_1
*I *1353:A1 I *D gf180mcu_fd_sc_mcu7t5v0__aoi221_2
*I *1350:A1 I *D gf180mcu_fd_sc_mcu7t5v0__aoi211_1
*I *1308:A1 I *D gf180mcu_fd_sc_mcu7t5v0__aoi21_1
*I *1537:Z O *D gf180mcu_fd_sc_mcu7t5v0__dlyb_1
*CAP
1 *1317:A1 2.12714e-05
2 *1302:A1 5.76717e-05
3 *1313:A1 0.000170107
4 *1353:A1 0.000188923
5 *1350:A1 0
6 *1308:A1 0.000316571
7 *1537:Z 0
8 *328:60 0.000543655
9 *328:43 0.00108621
10 *328:16 0.000762477
11 *328:10 0.000805192
12 *328:6 0.000621758
13 *1302:A1 *1356:C 1.23523e-05
14 *1302:A1 *333:22 7.77106e-05
15 *1308:A1 *1308:B 0.000342886
16 *1313:A1 *1313:B 2.36914e-05
17 *1313:A1 *1327:A1 0.000192108
18 *1317:A1 *333:22 0.000135676
19 *1353:A1 *1353:C 8.12023e-06
20 *328:16 *1308:B 1.0415e-05
21 *328:60 *1327:A1 2.9595e-05
22 *353:I *328:10 3.64412e-05
23 *353:I *328:43 0.000239077
24 *1307:A1 *328:60 0.00023273
25 *1308:A2 *1308:A1 1.15771e-05
26 *1316:A1 *328:60 7.55739e-05
27 *1316:A2 *1313:A1 0.000286386
28 *1316:A2 *328:60 0.000335562
29 *1317:A2 *1302:A1 3.60134e-05
30 *1322:A2 *328:60 5.57662e-05
31 *1347:B *1353:A1 0.00116981
32 *1350:A2 *1308:A1 1.60989e-05
33 *1350:B *328:16 0.000152309
34 *1351:A2 *1308:A1 0.000239418
35 *1360:A2 *1302:A1 0.000445479
36 *1360:A2 *1317:A1 0.0002787
37 *1435:RN *1313:A1 0.00073156
38 *1435:RN *328:60 0.000232503
39 *1436:RN *328:43 8.21881e-05
40 *1437:D *328:43 0.000333206
41 *1445:RN *328:16 1.0415e-05
42 *1467:RN *328:16 2.1573e-06
43 *1468:I *328:43 0.000145907
44 *1520:I *1353:A1 0.00097763
45 *1537:I *328:16 0.000506118
46 *132:12 *328:60 0.000147441
47 *143:14 *328:60 0.0012681
48 *143:31 *328:60 3.92143e-05
49 *170:26 *1353:A1 3.73774e-06
50 *229:51 *1353:A1 0.000108596
51 *241:62 *328:10 4.03129e-06
52 *241:62 *328:16 2.97734e-05
53 *241:62 *328:43 4.51877e-05
54 *243:21 *328:16 0.000911387
55 *243:36 *328:10 0.000363016
56 *243:36 *328:16 0.000656225
57 *291:44 *328:10 2.52908e-05
*RES
1 *1537:Z *328:6 9 
2 *328:6 *328:10 1.8 
3 *328:10 *328:16 10.26 
4 *328:16 *1308:A1 7.38 
5 *328:16 *1350:A1 4.5 
6 *328:10 *1353:A1 12.69 
7 *328:6 *328:43 8.19 
8 *328:43 *1313:A1 7.02 
9 *328:43 *328:60 10.17 
10 *328:60 *1302:A1 10.17 
11 *328:60 *1317:A1 9.81 
*END

*D_NET *329 0.000666263
*CONN
*I *1465:D I *D gf180mcu_fd_sc_mcu7t5v0__dffrnq_1
*I *1538:Z O *D gf180mcu_fd_sc_mcu7t5v0__dlyc_1
*CAP
1 *1465:D 0.000194842
2 *1538:Z 0.000194842
3 *1465:D *1288:B 0.000242348
4 *1498:I *1465:D 4.6613e-06
5 *223:36 *1465:D 4.6613e-06
6 *305:12 *1465:D 2.491e-05
*RES
1 *1538:Z *1465:D 10.8 
*END

*D_NET *330 0.0173387
*CONN
*I *1385:I1 I *D gf180mcu_fd_sc_mcu7t5v0__mux2_2
*I *1303:B I *D gf180mcu_fd_sc_mcu7t5v0__aoi21_1
*I *1347:C I *D gf180mcu_fd_sc_mcu7t5v0__aoi211_2
*I *1304:A1 I *D gf180mcu_fd_sc_mcu7t5v0__nand2_1
*I *1435:Q O *D gf180mcu_fd_sc_mcu7t5v0__dffrnq_1
*CAP
1 *1385:I1 0.000454438
2 *1303:B 0.000370381
3 *1347:C 0.000187216
4 *1304:A1 0.00116662
5 *1435:Q 0.00012863
6 *330:30 0.00109251
7 *330:10 0.0016607
8 *330:8 0.000703181
9 *1304:A1 *1350:C 0.00102047
10 *1304:A1 *340:18 0.00122435
11 *1385:I1 *1386:I1 2.69364e-05
12 *330:10 *1350:C 0.001326
13 *330:10 *1386:I1 3.79274e-05
14 *330:10 *331:10 0.000317321
15 *330:30 *1386:I1 0.000508224
16 *353:I *1303:B 4.44745e-05
17 *402:I *1304:A1 0.000100647
18 *1262:I *1304:A1 0.000490083
19 *1303:A1 *1303:B 7.83587e-05
20 *1304:A2 *1304:A1 0.000817567
21 *1306:A1 *1303:B 8.50218e-05
22 *1313:A2 *330:8 0.000461166
23 *1328:B *330:8 6.5437e-05
24 *1347:B *1347:C 2.50865e-05
25 *1348:A2 *1304:A1 5.84278e-06
26 *1386:I0 *1385:I1 0.000425532
27 *1416:D *1385:I1 0.000365445
28 *1417:D *1303:B 0.000144735
29 *1435:RN *1385:I1 0.000432155
30 *1435:RN *330:30 0.000216636
31 *1436:D *1304:A1 2.35868e-05
32 *1446:D *1304:A1 1.08314e-05
33 *1447:D *1304:A1 0.000344415
34 *1459:CLK *1304:A1 0.000212085
35 *1494:I *1347:C 2.32176e-05
36 *136:32 *1347:C 4.6613e-06
37 *166:24 *1304:A1 0.000101485
38 *191:20 *1385:I1 0.000543503
39 *219:18 *1304:A1 0.000385133
40 *241:62 *1385:I1 8.14177e-05
41 *269:65 *1385:I1 9.71964e-06
42 *276:77 *1304:A1 9.69415e-05
43 *285:51 *1304:A1 0.000559648
44 *285:51 *1385:I1 7.07604e-05
45 *285:51 *330:10 0.000434554
46 *285:51 *330:30 8.57854e-05
47 *285:57 *1304:A1 0.000123839
48 *314:16 *1385:I1 0.000244013
*RES
1 *1435:Q *330:8 10.35 
2 *330:8 *330:10 4.77 
3 *330:10 *1304:A1 24.57 
4 *330:10 *1347:C 9.99 
5 *330:8 *330:30 3.33 
6 *330:30 *1303:B 11.97 
7 *330:30 *1385:I1 15.12 
*END

*D_NET *331 0.00943412
*CONN
*I *1308:B I *D gf180mcu_fd_sc_mcu7t5v0__aoi21_1
*I *1386:I1 I *D gf180mcu_fd_sc_mcu7t5v0__mux2_2
*I *1309:A1 I *D gf180mcu_fd_sc_mcu7t5v0__nand2_1
*I *1350:C I *D gf180mcu_fd_sc_mcu7t5v0__aoi211_1
*I *1436:Q O *D gf180mcu_fd_sc_mcu7t5v0__dffrnq_1
*CAP
1 *1308:B 0.000391215
2 *1386:I1 0.000249873
3 *1309:A1 9.12717e-05
4 *1350:C 0.000606819
5 *1436:Q 0
6 *331:10 0.000433796
7 *331:6 0.000376793
8 *1304:A1 *1350:C 0.00102047
9 *1308:A1 *1308:B 0.000342886
10 *1328:B *1309:A1 4.03416e-05
11 *1385:I1 *1386:I1 2.69364e-05
12 *1467:RN *1308:B 2.77246e-05
13 *1467:RN *1350:C 3.12451e-05
14 *1468:I *1309:A1 0.000269346
15 *219:10 *1350:C 0.000733933
16 *219:12 *1350:C 0.000257801
17 *219:18 *1350:C 0.00044709
18 *241:62 *1350:C 0.000354684
19 *241:62 *1386:I1 0.00141411
20 *241:62 *331:10 0.000117898
21 *328:16 *1308:B 1.0415e-05
22 *330:10 *1350:C 0.001326
23 *330:10 *1386:I1 3.79274e-05
24 *330:10 *331:10 0.000317321
25 *330:30 *1386:I1 0.000508224
*RES
1 *1436:Q *331:6 9 
2 *331:6 *331:10 1.26 
3 *331:10 *1350:C 15.48 
4 *331:10 *1309:A1 9.81 
5 *331:6 *1386:I1 12.87 
6 *1350:C *1308:B 11.88 
*END

*D_NET *332 0.0144901
*CONN
*I *1314:A1 I *D gf180mcu_fd_sc_mcu7t5v0__nand2_1
*I *1387:I1 I *D gf180mcu_fd_sc_mcu7t5v0__mux2_2
*I *1313:B I *D gf180mcu_fd_sc_mcu7t5v0__aoi21_1
*I *1353:C I *D gf180mcu_fd_sc_mcu7t5v0__aoi221_2
*I *1437:Q O *D gf180mcu_fd_sc_mcu7t5v0__dffrnq_1
*CAP
1 *1314:A1 0.000700444
2 *1387:I1 0.000238156
3 *1313:B 0.000566178
4 *1353:C 0.000497614
5 *1437:Q 0
6 *332:40 0.00132354
7 *332:8 0.00131389
8 *332:6 0.000635032
9 *1313:B *1327:A1 8.12856e-06
10 *404:I *1314:A1 4.10247e-05
11 *404:I *1353:C 0.00178611
12 *404:I *332:8 0.000765677
13 *404:I *332:40 0.00100833
14 *405:I *1314:A1 1.18462e-05
15 *424:I *1314:A1 4.19285e-05
16 *424:I *1387:I1 0.000150396
17 *424:I *332:40 9.27863e-05
18 *1313:A1 *1313:B 2.36914e-05
19 *1313:A2 *1353:C 0.00120587
20 *1316:A1 *1353:C 8.53366e-05
21 *1347:B *1353:C 2.86134e-05
22 *1353:A1 *1353:C 8.12023e-06
23 *1354:A2 *1353:C 8.69474e-05
24 *1386:I0 *1314:A1 0.000183018
25 *1386:S *1314:A1 5.82902e-05
26 *1435:RN *1313:B 0.000355376
27 *1481:I *332:40 1.99931e-05
28 *1495:I *1313:B 1.0415e-05
29 *1496:I *1314:A1 9.79925e-05
30 *132:16 *1313:B 0.000218416
31 *134:26 *1314:A1 6.85726e-05
32 *134:26 *332:40 9.12013e-05
33 *143:14 *1313:B 0.000236234
34 *170:26 *1353:C 0.000346684
35 *191:20 *1314:A1 0.00102182
36 *191:20 *1387:I1 0.000155701
37 *219:10 *1353:C 0.000161499
38 *232:56 *1314:A1 8.51803e-05
39 *241:88 *1387:I1 0.000416543
40 *243:67 *1353:C 0.000186946
41 *274:159 *1314:A1 3.33052e-05
42 *289:14 *332:8 0
43 *289:14 *332:40 0
44 *292:78 *1353:C 1.73891e-06
45 *314:16 *1314:A1 0.000121494
*RES
1 *1437:Q *332:6 9 
2 *332:6 *332:8 2.25 
3 *332:8 *1353:C 16.56 
4 *332:8 *1313:B 13.86 
5 *332:6 *332:40 3.69 
6 *332:40 *1387:I1 20.34 
7 *332:40 *1314:A1 24.39 
*END

*D_NET *333 0.0200518
*CONN
*I *1388:I1 I *D gf180mcu_fd_sc_mcu7t5v0__mux2_2
*I *1318:B I *D gf180mcu_fd_sc_mcu7t5v0__aoi21_1
*I *1319:A1 I *D gf180mcu_fd_sc_mcu7t5v0__nand2_1
*I *1356:C I *D gf180mcu_fd_sc_mcu7t5v0__aoi221_2
*I *1438:Q O *D gf180mcu_fd_sc_mcu7t5v0__dffrnq_1
*CAP
1 *1388:I1 8.7835e-05
2 *1318:B 0.000255743
3 *1319:A1 0.00316065
4 *1356:C 0.00028744
5 *1438:Q 0.000309984
6 *333:22 0.00384577
7 *333:16 0.000995609
8 *333:14 0.000740005
9 *1318:B *1322:B 0
10 *392:I *1356:C 6.96766e-06
11 *392:I *1388:I1 0.000551926
12 *392:I *333:16 0.00152225
13 *392:I *333:22 0.000691399
14 *1302:A1 *1356:C 1.23523e-05
15 *1302:A1 *333:22 7.77106e-05
16 *1312:A1 *1356:C 1.35491e-05
17 *1317:A1 *333:22 0.000135676
18 *1317:A2 *1356:C 1.86286e-05
19 *1317:A2 *333:22 0.000582577
20 *1318:A2 *1318:B 9.34436e-06
21 *1318:A2 *333:22 2.36152e-06
22 *1324:A2 *333:16 0
23 *1324:A2 *333:22 0
24 *1328:B *1356:C 3.58674e-05
25 *1356:A2 *1356:C 0.000341261
26 *1360:A2 *1356:C 0
27 *1360:A2 *333:22 1.52092e-05
28 *1387:S *1388:I1 0.000486234
29 *1419:D *333:14 0.00038018
30 *1438:D *333:16 0.000516389
31 *1438:D *333:22 0.000530648
32 *1496:I *333:14 7.15323e-05
33 *132:12 *333:22 7.18388e-06
34 *144:25 *1356:C 0.000303485
35 *172:22 *1319:A1 0
36 *191:20 *333:14 5.04694e-06
37 *208:147 *1318:B 9.3226e-06
38 *208:151 *1318:B 8.8619e-05
39 *208:265 *1319:A1 0.000352142
40 *208:301 *1319:A1 0.000115028
41 *272:63 *1319:A1 0.00209707
42 *272:78 *1319:A1 0.00126708
43 *274:159 *1388:I1 9.04462e-05
44 *285:51 *1388:I1 3.12451e-05
*RES
1 *1438:Q *333:14 11.7 
2 *333:14 *333:16 4.23 
3 *333:16 *333:22 9 
4 *333:22 *1356:C 15.93 
5 *333:22 *1319:A1 35.55 
6 *333:16 *1318:B 10.53 
7 *333:14 *1388:I1 10.8 
*END

*D_NET *334 0.0195309
*CONN
*I *1323:A1 I *D gf180mcu_fd_sc_mcu7t5v0__nand2_1
*I *1389:I1 I *D gf180mcu_fd_sc_mcu7t5v0__mux2_2
*I *1359:C I *D gf180mcu_fd_sc_mcu7t5v0__aoi211_2
*I *1322:B I *D gf180mcu_fd_sc_mcu7t5v0__aoi21_1
*I *1439:Q O *D gf180mcu_fd_sc_mcu7t5v0__dffrnq_1
*CAP
1 *1323:A1 0.00265022
2 *1389:I1 0
3 *1359:C 1.68679e-05
4 *1322:B 0.000330895
5 *1439:Q 0
6 *334:24 0.00161629
7 *334:14 0.00159318
8 *334:4 0.00297487
9 *1323:A1 *335:12 0
10 *1323:A1 *339:10 0.00136746
11 *369:I *1323:A1 0
12 *392:I *334:24 0
13 *421:I *1323:A1 0.000344807
14 *421:I *334:14 6.83079e-05
15 *423:I *334:24 3.67623e-05
16 *1318:A2 *1322:B 0.000295066
17 *1318:B *1322:B 0
18 *1324:B *1323:A1 0.00109415
19 *1328:A1 *1323:A1 7.45615e-05
20 *1328:B *1323:A1 0.000118259
21 *1335:B *1323:A1 0
22 *1391:I0 *1323:A1 1.44713e-05
23 *1393:S *1323:A1 9.65355e-06
24 *1420:D *1323:A1 0.00019431
25 *1420:D *334:14 0.000100113
26 *1437:RN *1322:B 4.38529e-05
27 *1438:D *1322:B 0.000339285
28 *1438:D *1359:C 0.000139631
29 *1438:D *334:24 0
30 *1438:RN *334:24 4.2666e-05
31 *1439:D *334:24 0.000925887
32 *1441:RN *1323:A1 1.2801e-05
33 *1489:I *1323:A1 7.16775e-05
34 *1496:I *334:24 0.000134395
35 *1497:I *334:24 2.62763e-05
36 *1531:I *1323:A1 0
37 *146:34 *1323:A1 0.00352738
38 *208:147 *1322:B 0
39 *208:205 *1323:A1 0
40 *208:205 *334:24 0
41 *243:79 *1323:A1 3.08259e-06
42 *267:18 *334:24 6.50688e-06
43 *274:159 *1323:A1 2.74594e-05
44 *274:159 *334:14 0.000921572
45 *276:220 *1323:A1 1.0415e-05
46 *285:51 *334:14 0.000386921
47 *318:10 *1323:A1 1.08727e-05
*RES
1 *1439:Q *334:4 4.5 
2 *334:4 *334:14 12.87 
3 *334:14 *334:24 17.37 
4 *334:24 *1322:B 7.38 
5 *334:24 *1359:C 4.95 
6 *334:14 *1389:I1 4.5 
7 *334:4 *1323:A1 38.34 
*END

*D_NET *335 0.0170585
*CONN
*I *1362:C I *D gf180mcu_fd_sc_mcu7t5v0__aoi211_2
*I *1326:B I *D gf180mcu_fd_sc_mcu7t5v0__aoi21_1
*I *1327:A1 I *D gf180mcu_fd_sc_mcu7t5v0__nand2_1
*I *1390:I1 I *D gf180mcu_fd_sc_mcu7t5v0__mux2_2
*I *1440:Q O *D gf180mcu_fd_sc_mcu7t5v0__dffrnq_1
*CAP
1 *1362:C 0
2 *1326:B 4.53583e-06
3 *1327:A1 0.00143188
4 *1390:I1 0.000370616
5 *1440:Q 0.0014472
6 *335:49 0.00194371
7 *335:31 0.00055169
8 *335:12 0.00186222
9 *335:31 *1330:B 1.51925e-05
10 *335:49 *1330:B 0.00010306
11 *355:I *335:12 8.16311e-05
12 *421:I *335:12 0
13 *1302:A2 *1327:A1 0.000393252
14 *1307:A1 *1327:A1 0.000194612
15 *1313:A1 *1327:A1 0.000192108
16 *1313:A2 *1327:A1 0.000171278
17 *1313:B *1327:A1 8.12856e-06
18 *1315:A2 *1327:A1 0.000396255
19 *1316:A1 *1327:A1 0.00106067
20 *1316:A2 *1327:A1 0.000672875
21 *1323:A1 *335:12 0
22 *1326:A1 *335:49 0.000216897
23 *1328:A2 *335:49 0.000436469
24 *1328:B *1327:A1 0.000134595
25 *1328:B *335:49 0.000204168
26 *1330:A1 *335:49 1.23558e-05
27 *1332:B *1390:I1 0.000211064
28 *1359:B *335:49 0.000351457
29 *1362:A2 *335:49 0.000321412
30 *1362:B *1390:I1 0.000404619
31 *1362:B *335:31 3.7795e-05
32 *1365:A1 *1390:I1 0.000155361
33 *1365:A1 *335:49 1.23715e-05
34 *1437:RN *335:31 0.000220196
35 *1437:RN *335:49 0.00070165
36 *1440:RN *335:12 0
37 *1495:I *1327:A1 1.36798e-05
38 *108:43 *1326:B 9.85004e-05
39 *108:43 *1327:A1 0.000372112
40 *143:31 *1327:A1 4.32566e-05
41 *144:52 *1326:B 6.65706e-05
42 *144:52 *1327:A1 0.000461166
43 *208:123 *335:49 0.00012946
44 *267:18 *335:49 9.85004e-05
45 *270:37 *1390:I1 2.40138e-05
46 *274:159 *335:12 2.21432e-05
47 *290:10 *1390:I1 9.9698e-05
48 *290:34 *1390:I1 0.000224565
49 *317:24 *335:12 0
50 *327:53 *1390:I1 0.00105389
51 *328:60 *1327:A1 2.9595e-05
*RES
1 *1440:Q *335:12 16.65 
2 *335:12 *1390:I1 14.04 
3 *335:12 *335:31 5.13 
4 *335:31 *335:49 24.75 
5 *335:49 *1327:A1 18.27 
6 *335:49 *1326:B 4.77 
7 *335:31 *1362:C 4.5 
*END

*D_NET *336 0.0118852
*CONN
*I *1391:I1 I *D gf180mcu_fd_sc_mcu7t5v0__mux2_2
*I *1365:C I *D gf180mcu_fd_sc_mcu7t5v0__aoi221_2
*I *1331:A1 I *D gf180mcu_fd_sc_mcu7t5v0__nand2_1
*I *1330:B I *D gf180mcu_fd_sc_mcu7t5v0__aoi21_1
*I *1441:Q O *D gf180mcu_fd_sc_mcu7t5v0__dffrnq_1
*CAP
1 *1391:I1 0.000259603
2 *1365:C 0
3 *1331:A1 0.000590364
4 *1330:B 0.000206752
5 *1441:Q 0
6 *336:31 0.000932631
7 *336:16 0.00103383
8 *336:4 0.000744412
9 *406:I *1391:I1 4.5354e-05
10 *406:I *336:16 0.00027389
11 *1305:B *1331:A1 0
12 *1328:A1 *336:31 0.000164219
13 *1332:A2 *1330:B 0.000433476
14 *1332:A2 *336:16 9.63768e-05
15 *1338:A2 *1331:A1 4.46803e-05
16 *1362:A2 *1330:B 0.000177379
17 *1362:B *1330:B 9.67415e-05
18 *1365:A2 *1331:A1 7.95083e-05
19 *1365:A2 *336:31 0.000339013
20 *1365:B1 *1331:A1 0.000299724
21 *1365:B2 *1331:A1 0.000346693
22 *1371:B *1331:A1 0.000677584
23 *1372:A2 *1331:A1 0.000427492
24 *1391:S *1391:I1 1.20058e-05
25 *1437:RN *1330:B 4.67165e-05
26 *1437:RN *336:16 6.48614e-05
27 *1441:D *336:16 6.04076e-05
28 *1502:I *1331:A1 3.93525e-05
29 *1518:I *336:31 0.00100223
30 *1531:I *1391:I1 1.70035e-05
31 *1531:I *336:16 2.10751e-05
32 *108:43 *1331:A1 9.0531e-06
33 *108:43 *336:31 0.000540357
34 *144:52 *336:31 3.73774e-06
35 *172:22 *1331:A1 2.72953e-05
36 *172:22 *336:16 3.1302e-05
37 *207:12 *1331:A1 4.34199e-06
38 *243:67 *1331:A1 0.00039778
39 *243:67 *336:16 3.88059e-05
40 *243:67 *336:31 5.82414e-05
41 *266:20 *1331:A1 0.00166504
42 *270:37 *336:16 3.54649e-05
43 *274:81 *1331:A1 0.000132088
44 *274:155 *1331:A1 0.000229402
45 *290:10 *336:31 5.00297e-05
46 *312:14 *1331:A1 1.06822e-05
47 *335:31 *1330:B 1.51925e-05
48 *335:49 *1330:B 0.00010306
*RES
1 *1441:Q *336:4 4.5 
2 *336:4 *336:16 13.14 
3 *336:16 *1330:B 7.11 
4 *336:16 *336:31 13.14 
5 *336:31 *1331:A1 31.14 
6 *336:31 *1365:C 4.5 
7 *336:4 *1391:I1 6.21 
*END

*D_NET *337 0.0170913
*CONN
*I *1392:I1 I *D gf180mcu_fd_sc_mcu7t5v0__mux2_2
*I *1333:B I *D gf180mcu_fd_sc_mcu7t5v0__aoi21_1
*I *1368:C I *D gf180mcu_fd_sc_mcu7t5v0__aoi211_2
*I *1334:A1 I *D gf180mcu_fd_sc_mcu7t5v0__nand2_1
*I *1442:Q O *D gf180mcu_fd_sc_mcu7t5v0__dffrnq_1
*CAP
1 *1392:I1 0.000494633
2 *1333:B 0.000118414
3 *1368:C 0.000245361
4 *1334:A1 0.000768017
5 *1442:Q 0
6 *337:43 0.00108183
7 *337:29 0.00168449
8 *337:4 0.00123982
9 *1334:A1 *1514:I 0.000398121
10 *337:43 *1514:I 0.000519
11 *350:I *1392:I1 0.000147005
12 *355:I *1334:A1 0.00010138
13 *361:I *1334:A1 0.000997349
14 *406:I *1333:B 9.08031e-05
15 *406:I *337:43 0.000878672
16 *451:I *337:29 0.000614443
17 *1332:B *1368:C 0.00130138
18 *1333:A1 *1368:C 1.39504e-05
19 *1335:A1 *337:43 6.0354e-06
20 *1335:A2 *1368:C 0.000292006
21 *1335:A2 *337:43 0.000340023
22 *1371:B *1368:C 0.000125958
23 *1392:I0 *1392:I1 0.000147005
24 *1422:CLK *1334:A1 0.000146905
25 *1425:D *337:29 5.06228e-05
26 *1442:D *337:43 5.2575e-05
27 *1512:I *1334:A1 1.39839e-05
28 *1531:I *1334:A1 1.15806e-05
29 *1532:I *1334:A1 3.73774e-06
30 *1532:I *337:43 0.00090868
31 *1558:I *1334:A1 5.71925e-05
32 *170:26 *1368:C 3.12451e-05
33 *213:21 *337:29 0.000114808
34 *248:89 *337:29 0.000168212
35 *270:37 *1333:B 5.69399e-05
36 *274:155 *1368:C 0.00169884
37 *274:155 *337:43 0.000363608
38 *276:192 *1333:B 0.000417353
39 *283:8 *1334:A1 0.000813301
40 *284:24 *337:43 0.00052629
41 *322:16 *1334:A1 1.33093e-05
42 *323:16 *1334:A1 2.37561e-05
43 *323:18 *1334:A1 1.26644e-05
*RES
1 *1442:Q *337:4 4.5 
2 *337:4 *1334:A1 21.33 
3 *337:4 *337:29 12.87 
4 *337:29 *337:43 20.7 
5 *337:43 *1368:C 14.31 
6 *337:43 *1333:B 10.53 
7 *337:29 *1392:I1 15.66 
*END

*D_NET *338 0.0157522
*CONN
*I *1393:I1 I *D gf180mcu_fd_sc_mcu7t5v0__mux2_2
*I *1339:A1 I *D gf180mcu_fd_sc_mcu7t5v0__nand2_1
*I *1371:C I *D gf180mcu_fd_sc_mcu7t5v0__aoi211_2
*I *1338:B I *D gf180mcu_fd_sc_mcu7t5v0__aoi21_1
*I *1443:Q O *D gf180mcu_fd_sc_mcu7t5v0__dffrnq_1
*CAP
1 *1393:I1 0.00115399
2 *1339:A1 0.000126735
3 *1371:C 0.000262253
4 *1338:B 0
5 *1443:Q 0.000165607
6 *338:39 0.000512874
7 *338:28 0.00121498
8 *338:12 0.00241068
9 *1339:A1 *1342:B 5.70446e-05
10 *338:12 *1514:I 8.56844e-05
11 *338:28 *1342:B 0.000346772
12 *338:28 *1514:I 0.00116801
13 *338:39 *1342:B 0.000224148
14 *361:I *338:12 9.09626e-05
15 *412:I *338:28 0
16 *429:I *338:28 4.82043e-05
17 *1338:A1 *338:28 0.000152008
18 *1338:A2 *1371:C 0.00093128
19 *1338:A2 *338:39 3.81553e-06
20 *1344:A2 *338:28 0.000521102
21 *1371:B *1371:C 9.04462e-05
22 *1424:D *1393:I1 0.000384802
23 *1425:D *338:28 0.00055872
24 *1443:D *338:28 0.000343735
25 *1444:RN *338:28 0.000139503
26 *191:34 *1393:I1 0.00211081
27 *191:34 *338:12 0.000336679
28 *248:89 *338:28 4.6308e-05
29 *266:20 *1371:C 5.31089e-05
30 *270:10 *338:28 2.25637e-05
31 *274:97 *1339:A1 0.000286084
32 *274:97 *1371:C 0.000925155
33 *274:108 *1339:A1 0.000106753
34 *276:192 *338:28 0.000349965
35 *322:16 *338:28 7.39934e-06
36 *322:18 *338:28 8.17233e-05
37 *324:23 *1393:I1 0.000418857
38 *327:20 *338:28 1.34934e-05
*RES
1 *1443:Q *338:12 14.76 
2 *338:12 *338:28 28.8 
3 *338:28 *1338:B 4.5 
4 *338:28 *338:39 1.53 
5 *338:39 *1371:C 8.46 
6 *338:39 *1339:A1 6.21 
7 *338:12 *1393:I1 23.76 
*END

*D_NET *339 0.0085814
*CONN
*I *1394:I1 I *D gf180mcu_fd_sc_mcu7t5v0__mux2_2
*I *1343:A1 I *D gf180mcu_fd_sc_mcu7t5v0__nand2_1
*I *1342:B I *D gf180mcu_fd_sc_mcu7t5v0__aoi21_1
*I *1444:Q O *D gf180mcu_fd_sc_mcu7t5v0__dffrnq_1
*CAP
1 *1394:I1 7.82555e-05
2 *1343:A1 0
3 *1342:B 0.000883969
4 *1444:Q 0.000488437
5 *339:12 0.00118624
6 *339:10 0.000868966
7 *358:I *1342:B 7.90339e-05
8 *1286:A2 *1342:B 6.89668e-06
9 *1323:A1 *339:10 0.00136746
10 *1339:A1 *1342:B 5.70446e-05
11 *1393:S *1394:I1 1.60093e-05
12 *1424:CLK *339:10 3.27047e-05
13 *1444:D *1342:B 0
14 *1444:CLK *1342:B 0.00013682
15 *1444:CLK *339:12 2.7435e-05
16 *1463:D *1342:B 0.000605619
17 *1463:D *339:12 0.000139109
18 *1475:I *1342:B 0.000153773
19 *1475:I *339:12 0.000153724
20 *1489:I *339:10 0.000722431
21 *113:6 *1342:B 0
22 *146:34 *339:10 0.000207059
23 *208:279 *339:10 0.000229045
24 *208:279 *339:12 0.000233101
25 *212:28 *339:10 0.000147441
26 *215:10 *339:10 1.63752e-05
27 *215:10 *339:12 6.49759e-06
28 *274:108 *1342:B 0.000164138
29 *284:31 *1394:I1 2.89427e-06
30 *338:28 *1342:B 0.000346772
31 *338:39 *1342:B 0.000224148
*RES
1 *1444:Q *339:10 14.94 
2 *339:10 *339:12 2.79 
3 *339:12 *1342:B 16.56 
4 *339:12 *1343:A1 9 
5 *339:10 *1394:I1 9.45 
*END

*D_NET *340 0.0169576
*CONN
*I *1376:A2 I *D gf180mcu_fd_sc_mcu7t5v0__aoi21_1
*I *1401:A1 I *D gf180mcu_fd_sc_mcu7t5v0__aoi211_1
*I *1517:I I *D gf180mcu_fd_sc_mcu7t5v0__dlyb_1
*I *1459:Q O *D gf180mcu_fd_sc_mcu7t5v0__dffsnq_1
*CAP
1 *1376:A2 0.000525896
2 *1401:A1 0
3 *1517:I 0
4 *1459:Q 0.000651295
5 *340:37 0.00139315
6 *340:18 0.00151855
7 *1376:A2 *1515:I 0.000249081
8 *1376:A2 *343:27 1.8879e-05
9 *1290:A2 *1376:A2 0.000394452
10 *1304:A1 *340:18 0.00122435
11 *1398:I1 *340:18 0.000192308
12 *1398:I1 *340:37 0.0015114
13 *1398:S *340:18 3.12451e-05
14 *1400:A2 *340:37 0.000188643
15 *1401:A2 *340:37 2.22043e-05
16 *1402:A1 *340:37 0.00091764
17 *1402:A2 *340:37 0.000402423
18 *1407:B2 *1376:A2 2.89427e-06
19 *1428:D *340:37 0.000217198
20 *1428:CLK *340:37 0.00113928
21 *1436:D *340:18 0.000289331
22 *1447:D *340:18 0.000232415
23 *1447:CLK *340:18 0.000242198
24 *1447:CLK *340:37 0.000149458
25 *110:33 *1376:A2 0.000552136
26 *123:16 *1376:A2 0.00111097
27 *123:16 *340:37 3.01487e-05
28 *192:8 *340:37 0.000231436
29 *208:15 *1376:A2 0.000190381
30 *208:19 *1376:A2 0
31 *219:18 *340:18 0.000734722
32 *231:22 *1376:A2 0.000342946
33 *269:10 *340:18 0.00033609
34 *269:10 *340:37 6.38398e-05
35 *274:14 *1376:A2 3.43442e-05
36 *274:34 *1376:A2 0.000332395
37 *276:46 *340:37 3.35847e-05
38 *276:147 *1376:A2 3.65534e-05
39 *287:20 *1376:A2 2.49212e-05
40 *290:151 *340:37 0.000732537
41 *291:79 *340:37 2.36954e-05
42 *293:54 *1376:A2 0.000342403
43 *293:54 *340:37 0.000290226
*RES
1 *1459:Q *340:18 21.87 
2 *340:18 *1517:I 4.5 
3 *340:18 *340:37 21.51 
4 *340:37 *1401:A1 4.5 
5 *340:37 *1376:A2 20.79 
*END

*D_NET *341 0.00875872
*CONN
*I *1408:A2 I *D gf180mcu_fd_sc_mcu7t5v0__oai31_1
*I *1516:I I *D gf180mcu_fd_sc_mcu7t5v0__dlyb_1
*I *1460:Q O *D gf180mcu_fd_sc_mcu7t5v0__dffrnq_1
*CAP
1 *1408:A2 9.5182e-05
2 *1516:I 0.000367437
3 *1460:Q 0.00136498
4 *341:14 0.0018276
5 *1516:I *1255:I 0.00019884
6 *1516:I *344:56 0.000322726
7 *341:14 *1293:A1 0.000317701
8 *341:14 *1293:A2 5.31404e-05
9 *341:14 *344:60 2.63229e-05
10 *1273:A1 *1408:A2 0.000141015
11 *1273:A1 *1516:I 0.000567142
12 *1273:A2 *341:14 9.44336e-05
13 *1296:A3 *1516:I 0.000101624
14 *1299:A2 *341:14 6.13317e-05
15 *1375:A2 *1408:A2 0.000218968
16 *1396:A2 *341:14 0.000483012
17 *1410:A2 *1408:A2 0.000121658
18 *1460:CLK *341:14 0.000127841
19 *1464:D *341:14 1.86093e-05
20 *1466:D *341:14 2.29459e-06
21 *1488:I *1408:A2 0.000212663
22 *1601:I *1516:I 3.61578e-05
23 *86:18 *341:14 0.000461879
24 *100:16 *341:14 0.000378295
25 *100:31 *341:14 8.98781e-05
26 *100:54 *341:14 4.91773e-05
27 *208:457 *341:14 0
28 *210:17 *341:14 4.48171e-06
29 *225:20 *1408:A2 1.29163e-05
30 *239:97 *341:14 0.00023751
31 *288:26 *341:14 0.000763909
*RES
1 *1460:Q *341:14 26.01 
2 *341:14 *1516:I 17.64 
3 *341:14 *1408:A2 15.12 
*END

*D_NET *342 0.0157615
*CONN
*I *1345:A2 I *D gf180mcu_fd_sc_mcu7t5v0__nor2_1
*I *1379:A1 I *D gf180mcu_fd_sc_mcu7t5v0__nor3_1
*I *1538:I I *D gf180mcu_fd_sc_mcu7t5v0__dlyc_1
*I *1461:Q O *D gf180mcu_fd_sc_mcu7t5v0__dffrnq_1
*CAP
1 *1345:A2 5.59234e-05
2 *1379:A1 0.00114816
3 *1538:I 0.000461863
4 *1461:Q 3.48249e-05
5 *342:30 0.00163112
6 *1336:A1 *1379:A1 7.69936e-06
7 *1357:A2 *1379:A1 0.000796803
8 *1369:A1 *1379:A1 2.32247e-05
9 *1369:B *342:30 0.000331353
10 *1372:A2 *1345:A2 9.01188e-05
11 *1372:A2 *342:30 0.000111961
12 *1372:B *1379:A1 0.00151168
13 *1373:A2 *1379:A1 0.000509907
14 *1374:A1 *1379:A1 2.33065e-05
15 *1374:B2 *1379:A1 0.000351978
16 *1452:D *1379:A1 0.000554178
17 *1453:D *1379:A1 4.68648e-05
18 *1454:D *1379:A1 0.000247758
19 *1548:I *1345:A2 0.000278178
20 *1548:I *342:30 0.00104725
21 *1567:I *1538:I 0.000189674
22 *1567:I *342:30 1.30881e-05
23 *1571:I *342:30 0
24 *1598:I *1379:A1 0.000151442
25 *120:69 *1379:A1 6.2083e-06
26 *122:20 *1379:A1 0.000955901
27 *122:20 *342:30 0.000873082
28 *206:43 *1379:A1 0.000705808
29 *248:48 *342:30 5.30888e-06
30 *265:38 *1379:A1 9.82968e-06
31 *281:10 *1379:A1 0.00172102
32 *281:29 *1379:A1 0.000140796
33 *289:134 *1379:A1 0.000100153
34 *296:34 *342:30 4.34467e-06
35 *298:14 *342:30 0.000769885
36 *298:65 *1538:I 0.000442189
37 *298:65 *342:30 0.000362773
38 *304:12 *342:30 4.58958e-05
*RES
1 *1461:Q *1538:I 10.17 
2 *1538:I *342:30 25.02 
3 *342:30 *1379:A1 34.65 
4 *342:30 *1345:A2 9.81 
*END

*D_NET *343 0.00891226
*CONN
*I *1403:C I *D gf180mcu_fd_sc_mcu7t5v0__oai211_1
*I *1405:A1 I *D gf180mcu_fd_sc_mcu7t5v0__oai21_1
*I *1515:I I *D gf180mcu_fd_sc_mcu7t5v0__dlyb_1
*I *1462:Q O *D gf180mcu_fd_sc_mcu7t5v0__dffrnq_1
*CAP
1 *1403:C 0
2 *1405:A1 0.000345769
3 *1515:I 0.000176891
4 *1462:Q 0.000808086
5 *343:27 0.00043481
6 *343:12 0.00107402
7 *1284:A1 *1405:A1 0.000218699
8 *1292:A1 *343:12 0.000557073
9 *1292:A2 *343:12 9.88893e-05
10 *1305:B *343:12 0.000175671
11 *1376:A2 *1515:I 0.000249081
12 *1376:A2 *343:27 1.8879e-05
13 *1405:B *1405:A1 6.06287e-05
14 *1407:B2 *343:27 0.000533534
15 *1407:C *343:12 0.000143478
16 *1469:I *343:12 5.23429e-06
17 *118:14 *1405:A1 3.30162e-05
18 *123:16 *343:27 0.000352362
19 *123:45 *343:12 0.000377395
20 *196:10 *1405:A1 3.07167e-05
21 *198:26 *343:12 3.73774e-06
22 *208:11 *343:12 5.46027e-05
23 *208:15 *1515:I 2.69246e-05
24 *208:15 *343:12 9.43763e-05
25 *208:19 *1405:A1 5.61618e-06
26 *208:19 *1515:I 5.98761e-07
27 *208:371 *1515:I 6.76093e-06
28 *231:22 *1515:I 2.08301e-05
29 *231:22 *343:27 1.39313e-05
30 *274:14 *1405:A1 0.000328501
31 *276:14 *343:12 0.000421744
32 *276:20 *1405:A1 0.000415336
33 *276:147 *1405:A1 9.56196e-05
34 *287:20 *1515:I 9.68262e-05
35 *287:20 *343:12 7.84278e-05
36 *293:14 *1405:A1 0.000101624
37 *293:22 *1405:A1 0.000781653
38 *302:10 *343:12 0.000670919
*RES
1 *1462:Q *343:12 17.19 
2 *343:12 *1515:I 10.44 
3 *343:12 *343:27 6.03 
4 *343:27 *1405:A1 18 
5 *343:27 *1403:C 4.5 
*END

*D_NET *344 0.0147093
*CONN
*I *1412:A1 I *D gf180mcu_fd_sc_mcu7t5v0__aoi22_1
*I *1408:A1 I *D gf180mcu_fd_sc_mcu7t5v0__oai31_1
*I *1375:A1 I *D gf180mcu_fd_sc_mcu7t5v0__nor3_1
*I *1293:A2 I *D gf180mcu_fd_sc_mcu7t5v0__or3_1
*I *1255:I I *D gf180mcu_fd_sc_mcu7t5v0__clkinv_1
*I *1285:B I *D gf180mcu_fd_sc_mcu7t5v0__oai21_1
*I *1463:Q O *D gf180mcu_fd_sc_mcu7t5v0__dffrnq_1
*CAP
1 *1412:A1 2.39564e-05
2 *1408:A1 7.61928e-05
3 *1375:A1 9.54122e-05
4 *1293:A2 0.000210793
5 *1255:I 0.000617836
6 *1285:B 6.76461e-05
7 *1463:Q 8.08536e-05
8 *344:60 0.000488635
9 *344:56 0.000957014
10 *344:31 0.00134227
11 *344:27 0.00123225
12 *344:8 0.00133075
13 *1293:A2 *1293:A1 7.48093e-05
14 *380:I *344:27 0.000656833
15 *380:I *344:31 9.19699e-05
16 *1273:A1 *1255:I 3.57452e-05
17 *1273:A1 *1375:A1 8.65983e-05
18 *1296:A2 *1412:A1 2.75149e-05
19 *1296:A3 *1255:I 0.000342123
20 *1299:A2 *1293:A2 0.00022568
21 *1300:A2 *344:27 4.31718e-05
22 *1301:A2 *344:27 0.000423819
23 *1346:A1 *344:27 3.16918e-06
24 *1349:A2 *344:27 0.000236488
25 *1375:A2 *1375:A1 0.000118095
26 *1377:A2 *1375:A1 4.12855e-05
27 *1408:A3 *1375:A1 0.000221903
28 *1412:A2 *344:27 0.000158738
29 *1412:B1 *1408:A1 0.000181242
30 *1412:B1 *344:56 0.000356942
31 *1412:B2 *344:27 2.98735e-05
32 *1412:B2 *344:31 2.69292e-05
33 *1412:B2 *344:56 1.20058e-05
34 *1413:B2 *1408:A1 1.70119e-05
35 *1413:B2 *1412:A1 3.6263e-05
36 *1413:B2 *344:56 1.49295e-05
37 *1415:A1 *1285:B 0.000169635
38 *1415:A1 *344:8 0.000170746
39 *1415:A1 *344:27 2.79779e-05
40 *1415:A2 *344:27 4.25429e-05
41 *1462:D *1255:I 7.35802e-05
42 *1462:D *1293:A2 0.00022178
43 *1464:D *1293:A2 0.000269832
44 *1464:D *344:60 0.000121918
45 *1465:RN *1293:A2 0
46 *1466:D *344:27 0
47 *1466:D *344:56 4.31832e-06
48 *1466:D *344:60 0
49 *1466:CLK *344:27 1.4692e-05
50 *1516:I *1255:I 0.00019884
51 *1516:I *344:56 0.000322726
52 *1601:I *1375:A1 0.000473889
53 *1601:I *344:27 5.27337e-05
54 *4:30 *1255:I 4.68825e-05
55 *44:10 *1255:I 0.000897978
56 *100:54 *1293:A2 2.44598e-07
57 *101:16 *1285:B 0.000491537
58 *101:16 *344:8 0.000388316
59 *101:16 *344:27 3.33212e-05
60 *113:6 *1285:B 1.27836e-05
61 *131:12 *344:27 0.000237128
62 *208:457 *344:27 7.32818e-06
63 *225:20 *344:56 2.0903e-05
64 *225:20 *344:60 7.39934e-06
65 *228:16 *344:8 4.434e-05
66 *272:125 *344:27 0.000274969
67 *288:76 *1293:A2 1.478e-05
68 *341:14 *1293:A2 5.31404e-05
69 *341:14 *344:60 2.63229e-05
*RES
1 *1463:Q *344:8 5.94 
2 *344:8 *1285:B 5.85 
3 *344:8 *344:27 13.77 
4 *344:27 *344:31 4.77 
5 *344:31 *1255:I 18.27 
6 *344:31 *344:56 12.69 
7 *344:56 *344:60 5.67 
8 *344:60 *1293:A2 11.52 
9 *344:60 *1375:A1 10.71 
10 *344:56 *1408:A1 5.13 
11 *344:27 *1412:A1 9.27 
*END

*D_NET *345 0.0128143
*CONN
*I *1282:A1 I *D gf180mcu_fd_sc_mcu7t5v0__nand2_1
*I *1250:I I *D gf180mcu_fd_sc_mcu7t5v0__clkinv_1
*I *1299:A1 I *D gf180mcu_fd_sc_mcu7t5v0__oai21_1
*I *1293:A1 I *D gf180mcu_fd_sc_mcu7t5v0__or3_1
*I *1464:Q O *D gf180mcu_fd_sc_mcu7t5v0__dffrnq_1
*CAP
1 *1282:A1 0
2 *1250:I 0.000251285
3 *1299:A1 0.000181961
4 *1293:A1 0.000118905
5 *1464:Q 0
6 *345:40 0.000760623
7 *345:25 0.0015445
8 *345:4 0.000972107
9 *360:I *1250:I 1.68605e-05
10 *1251:I *345:40 0
11 *1282:A2 *345:40 7.55765e-06
12 *1293:A2 *1293:A1 7.48093e-05
13 *1299:A2 *1293:A1 1.71254e-05
14 *1299:A2 *1299:A1 3.12451e-05
15 *1299:A2 *345:25 0.00130826
16 *1299:B *1299:A1 1.56862e-05
17 *1377:A2 *1293:A1 0.000121978
18 *1377:A2 *345:25 0.000476091
19 *1408:A3 *345:25 2.67558e-05
20 *1529:I *1250:I 0
21 *1529:I *1299:A1 7.51089e-06
22 *1529:I *345:25 0.000403721
23 *1529:I *345:40 0.00288871
24 *1541:I *345:40 0
25 *1569:I *1250:I 0.000229717
26 *1569:I *345:25 0.000260117
27 *1569:I *345:40 0.000856952
28 *4:30 *1293:A1 0.000132393
29 *4:30 *345:25 0.000649884
30 *98:12 *1250:I 0.00114182
31 *341:14 *1293:A1 0.000317701
*RES
1 *1464:Q *345:4 4.5 
2 *345:4 *1293:A1 15.3 
3 *345:4 *345:25 13.77 
4 *345:25 *1299:A1 9.99 
5 *345:25 *345:40 13.5 
6 *345:40 *1250:I 16.83 
7 *345:40 *1282:A1 4.5 
*END

*D_NET *346 0.00680526
*CONN
*I *1296:A1 I *D gf180mcu_fd_sc_mcu7t5v0__nor3_2
*I *1288:B I *D gf180mcu_fd_sc_mcu7t5v0__aoi21_1
*I *1465:Q O *D gf180mcu_fd_sc_mcu7t5v0__dffrnq_1
*CAP
1 *1296:A1 0.000197595
2 *1288:B 0.00101413
3 *1465:Q 0
4 *346:6 0.00121172
5 *1273:A1 *1296:A1 0.000114736
6 *1278:A2 *1296:A1 0.000336258
7 *1280:A1 *1288:B 9.06369e-06
8 *1280:A3 *1288:B 0.000282448
9 *1288:A2 *1288:B 7.59818e-05
10 *1296:A2 *1296:A1 3.55118e-05
11 *1296:A3 *1296:A1 9.85004e-05
12 *1376:A1 *1288:B 0.000112522
13 *1376:A1 *1296:A1 0.000112969
14 *1377:A2 *1288:B 0.000950475
15 *1377:A2 *1296:A1 0.000601695
16 *1465:D *1288:B 0.000242348
17 *1498:I *1288:B 9.51606e-05
18 *1571:I *1288:B 0.000266586
19 *44:10 *1288:B 0.000132549
20 *223:12 *1288:B 0.000205808
21 *223:16 *1288:B 0.000412061
22 *248:65 *1288:B 0.000195095
23 *248:65 *1296:A1 0.000102042
24 *305:12 *1288:B 0
*RES
1 *1465:Q *346:6 9 
2 *346:6 *1288:B 19.26 
3 *346:6 *1296:A1 12.42 
*END

*D_NET *347 0.00863733
*CONN
*I *1514:I I *D gf180mcu_fd_sc_mcu7t5v0__dlyb_1
*I *1466:Q O *D gf180mcu_fd_sc_mcu7t5v0__dffrnq_1
*CAP
1 *1514:I 0.00164453
2 *1466:Q 0.00164453
3 *361:I *1514:I 0.000210269
4 *1334:A1 *1514:I 0.000398121
5 *1335:A1 *1514:I 1.04303e-05
6 *1340:A2 *1514:I 0
7 *1344:A2 *1514:I 5.58606e-05
8 *1369:A2 *1514:I 0.000396118
9 *1374:B2 *1514:I 3.54228e-06
10 *1425:D *1514:I 6.67019e-06
11 *1444:RN *1514:I 0.000727982
12 *1532:I *1514:I 5.83624e-05
13 *146:34 *1514:I 0.000415336
14 *170:26 *1514:I 0.000753807
15 *248:89 *1514:I 0
16 *270:10 *1514:I 0
17 *312:14 *1514:I 3.56699e-05
18 *322:16 *1514:I 0.000173221
19 *322:18 *1514:I 0.000330177
20 *337:43 *1514:I 0.000519
21 *338:12 *1514:I 8.56844e-05
22 *338:28 *1514:I 0.00116801
*RES
1 *1466:Q *1514:I 32.76 
*END
